 H  O Pt 
 1.0000000000000000
    16.8689999999999998    0.0000000000000000    0.0000000000000000
    -8.4344999999999999   14.6089825363999992    0.0000000000000000
     0.0000000000000000    0.0000000000000000   41.4780000000000015
   H   O  Pt
 460 230 216
Cartesian
  7.3961699999999997  9.6627200000000002 21.6490000000000009
  6.1433799999999996  9.3409099999999992 20.9966000000000008
  8.7664100000000005 12.2434999999999992 16.5172999999999988
  8.7750500000000002 12.7223000000000006 15.0914000000000001
 10.6090000000000000  9.7295099999999994 39.2263000000000019
  9.5818800000000000  8.6204699999999992 39.4253000000000000
  8.4817699999999991  0.0788575000000000 34.7511000000000010
  8.1194699999999997  1.0898699999999999 33.6480999999999995
  0.2425010000000000 11.8733000000000004 14.7433999999999994
  0.3658240000000000 11.7667999999999999 16.2957000000000001
 -6.0479900000000004 12.2106999999999992 30.2299000000000007
 -7.0264199999999999 13.0915999999999997 30.8599999999999994
  5.4117600000000001  7.3664699999999996 26.5965999999999987
  4.9672900000000002  8.5215800000000002 27.3412000000000006
 -3.6456700000000000  9.7114899999999995 20.5770000000000017
 -4.3725600000000000 10.9250000000000007 20.9725999999999999
  7.9759300000000000  1.2426900000000001 25.8834000000000017
 -0.0741124000000000 14.5724000000000000 25.1247000000000007
  1.2717099999999999  3.2865600000000001 34.7297999999999973
  1.0044800000000000  1.8918999999999999 34.0846000000000018
  3.8077600000000000 12.4617000000000004 15.6035000000000004
  2.7106599999999998 13.6693999999999996 15.1920000000000002
  9.3797099999999993 12.9535999999999998 23.5298000000000016
 -6.0391800000000000 13.1335999999999995 24.0960999999999999
  2.3577800000000000 10.9992000000000001 17.1075000000000017
  2.3755099999999998 11.0327999999999999 18.7010000000000005
 -3.5556999999999999  6.6189900000000002 18.0349000000000004
 12.8687000000000005  6.1290500000000003 19.4384000000000015
  9.2298899999999993  4.1321700000000003 35.8575999999999979
  7.9134099999999998  4.6676700000000002 36.1486999999999981
  1.8780100000000000  7.8829700000000003 38.9654999999999987
  2.5304500000000001  6.4835599999999998 38.5540999999999983
  0.5459000000000001  2.6493799999999998 30.1307000000000009
 -0.1585410000000000  2.5395699999999999 28.6899000000000015
 -5.7908700000000000 12.1540999999999997 19.9481000000000002
 -7.1715700000000000 12.5998999999999999 19.1419999999999995
 -4.5499799999999997 10.5503000000000000 28.3863999999999983
 -4.0603699999999998 11.8307000000000002 28.9020000000000010
  5.7753399999999999  3.3136100000000002 28.2444999999999986
  6.6920900000000003  4.4839599999999997 27.9034000000000013
  5.2158400000000000 11.0845000000000002 32.3834000000000017
  6.6044400000000003 11.8823000000000008 32.5013999999999967
 -3.7075100000000001  9.1279500000000002 25.8876999999999988
 -2.8473500000000000  8.9981000000000009 24.7570000000000014
  4.7361100000000000 13.9994999999999994 30.3554999999999993
  5.2650399999999999 13.3831000000000007 31.5065999999999988
  7.2641299999999998  1.3667700000000000 17.0870999999999995
  8.7785100000000007  1.3183100000000001 17.2993999999999986
  5.5150499999999996  3.1918000000000002 25.4380999999999986
  6.7270599999999998  4.2365700000000004 25.2557000000000009
  9.4853299999999994 10.2096999999999998 29.5348000000000006
 10.7703000000000007  9.3943700000000003 29.9426999999999985
  9.4721700000000002  1.0273200000000000 14.7608999999999995
  8.1944499999999998  0.2175910000000000 14.8673000000000002
  2.8624600000000000  8.8464600000000004 28.2593999999999994
  2.7704800000000001  8.9995999999999992 26.7756000000000007
 10.7606000000000002  8.1854899999999997 18.8613000000000000
 10.1160999999999994  7.5189300000000001 20.2199999999999989
 -0.5690070000000000  5.4333200000000001 17.5299000000000014
  0.0106288000000000  4.3914099999999996 18.6187000000000005
  0.4446510000000000 11.4545999999999992 35.7625999999999991
 -0.9730090000000000 11.6130999999999993 36.3997000000000028
  2.3498100000000002  4.5304099999999998 15.2279999999999998
  3.8124400000000001  4.3396299999999997 14.8916000000000004
  3.7456000000000000 11.1283999999999992 28.0625000000000000
  2.4214799999999999 10.9166000000000007 27.3719000000000001
 -7.4768699999999999 13.7792999999999992 39.5090000000000003
 -6.8577800000000000 12.5742999999999991 38.9359999999999999
 12.4580000000000002  1.4561299999999999 14.5996000000000006
 12.2096000000000000  0.6365510000000000 15.8800000000000008
  2.4499800000000000  3.5554500000000000 26.8390999999999984
  1.5378700000000001  4.3050899999999999 27.8216999999999999
  5.7920199999999999 13.5495000000000001 25.3774000000000015
  7.2717000000000001 13.7695000000000007 25.1138000000000012
 12.5211000000000006  2.2005400000000002 36.3973000000000013
 11.2942999999999998  2.3182900000000002 35.5375000000000014
  0.2025780000000000 12.5306999999999995 18.1676000000000002
 -0.3001180000000000 13.6617999999999995 17.2373000000000012
 11.3781999999999996  3.6173999999999999 33.3442000000000007
 12.6516999999999999  2.8853700000000000 33.2439999999999998
  0.7545269999999999  5.4023899999999996 23.7892000000000010
 -0.4396520000000000  4.4372800000000003 23.7186999999999983
 -0.1659280000000000 10.1473999999999993 30.2546999999999997
 -1.6838100000000000 10.6663999999999994 30.1152000000000015
 11.8587000000000007  4.5593700000000004 26.4873000000000012
 11.3338000000000001  5.9365399999999999 27.0352999999999994
  0.5250480000000000  3.3833899999999999 32.4765999999999977
 -0.5238750000000000  4.0104899999999999 31.5585999999999984
 -5.1124599999999996 10.1440000000000001 32.4100999999999999
 11.7583000000000002  8.7529500000000002 33.1486000000000018
  1.9552200000000000  2.6936599999999999 38.3701999999999970
  3.1163500000000002  2.8971200000000001 37.3104999999999976
 10.1164000000000005  9.9159500000000005 25.7335999999999991
  9.2950999999999997  9.0305400000000002 26.6594000000000015
 -4.5823200000000002 13.4550000000000001 21.3065999999999995
 -5.6483600000000003 12.8291000000000004 22.1633999999999993
  8.7038700000000002 11.0803999999999991 27.5090000000000003
  8.8153600000000001 12.3254999999999999 28.3583999999999996
  4.0221600000000004 12.2998999999999992 25.7984000000000009
  4.9876600000000000 11.7337000000000007 25.0071000000000012
  3.4683099999999998  7.7603600000000004 16.3790000000000013
  3.7580399999999998  7.0306899999999999 14.9152000000000005
  6.9199700000000002 14.5509000000000004 37.5527999999999977
 -0.4420370000000000  1.0984799999999999 37.6591000000000022
 -1.9676600000000000  9.5447199999999999 37.9605000000000032
 -2.1379700000000001  8.3216900000000003 38.9283000000000001
  8.4841999999999995  5.1222300000000001 23.7012999999999998
  7.8754099999999996  3.7303199999999999 23.1463999999999999
  5.2571500000000002  0.9582690000000000 21.0371999999999986
  6.4480399999999998  0.1068150000000000 20.3462999999999994
 14.6600000000000001  0.3031850000000000 26.8290000000000006
 14.1623999999999999  1.7399199999999999 27.3995999999999995
 -2.2580900000000002  5.7647800000000000 20.6383000000000010
 -0.9888209999999999  5.4753100000000003 21.5709000000000017
  7.9939999999999998 14.3750000000000000 34.2498999999999967
 16.1447000000000003  0.7939940000000000 35.4418000000000006
  4.7840900000000000  8.6610800000000001 33.7905999999999977
  4.5955700000000004  8.7528799999999993 32.2867000000000033
 -5.1586200000000000 11.7901000000000007 26.5573000000000015
 -4.9448400000000001 10.9358000000000004 25.4562999999999988
 -6.4252099999999999 11.6710999999999991 37.2477999999999980
  9.5459499999999995 10.4899000000000004 37.6961000000000013
 12.7287999999999997  1.8841100000000000 22.3470000000000013
 13.0008999999999997  0.7409130000000000 21.1056999999999988
  7.6651400000000001  6.2440600000000002 26.3397000000000006
  8.9564900000000005  5.4523599999999997 26.5427000000000000
 -1.1145400000000001  8.1255100000000002 23.0559000000000012
 -1.8078000000000001  7.1720100000000002 24.0642999999999994
 12.2573000000000008  1.3858800000000000 39.1422999999999988
 12.5955999999999992  2.6260300000000001 39.9772999999999996
  8.7048900000000007  1.6913899999999999 39.4583999999999975
 10.2187000000000001  1.8809899999999999 39.0638999999999967
  3.7179799999999998  5.3248300000000004 18.7677000000000014
  2.6579000000000002  5.1604099999999997 20.0295999999999985
  3.9176899999999999  1.8367100000000001 27.2831000000000010
  5.3543200000000004  1.7642899999999999 28.2938000000000009
 -2.6269000000000000 12.6745999999999999 32.1792000000000016
 -3.0383300000000002 13.9000000000000004 31.5366999999999997
  4.8869699999999998  8.5379199999999997 20.1210999999999984
  3.6537999999999999  8.0175500000000000 20.6741999999999990
 -0.7976140000000000  6.3736499999999996 33.5467999999999975
 -0.0573432000000000  6.2517699999999996 34.8014000000000010
  2.4606200000000000  0.1951160000000000 18.4255999999999993
  3.6680500000000000  0.8153400000000000 17.6262000000000008
  8.9504000000000001  4.8375399999999997 39.3723000000000027
 10.2667999999999999  5.3927199999999997 39.9953999999999965
  6.6943400000000004  2.2322799999999998 14.6311000000000000
  5.9016299999999999  0.9418970000000000 15.2822999999999993
 16.5017999999999994  0.2267770000000000 30.0999000000000017
  7.4040499999999998 13.5667000000000009 29.9215000000000018
  0.5869450000000001  0.8774060000000000 23.6488000000000014
  0.7491300000000000  2.3952399999999998 23.3170999999999999
  1.7620600000000000 12.0480000000000000 23.7350999999999992
  2.5257600000000000 10.9487000000000005 22.9878000000000000
  2.7111100000000001  5.7870499999999998 33.7588999999999970
  3.9487600000000000  5.5195499999999997 32.6899000000000015
 -1.5918300000000001  7.7580600000000004 28.2279000000000018
 -1.7417700000000000  7.7604699999999998 29.8350000000000009
 -1.9772799999999999 14.1035000000000004 33.9628999999999976
 -2.1792199999999999 13.3473000000000006 35.1467999999999989
  4.1959200000000001 12.1800999999999995 21.9523000000000010
  4.0692199999999996 10.6435999999999993 21.6343999999999994
 -1.5156799999999999  9.0715500000000002 31.8018999999999998
 -1.3552100000000000  9.1107499999999995 33.3113000000000028
 13.9405999999999999  1.0893800000000000 17.5553999999999988
 14.3780000000000001  0.0697214000000000 18.5655999999999999
  3.2593000000000001  6.5077699999999998 28.8616999999999990
  4.1154099999999998  5.5000200000000001 29.6050000000000004
 11.7112999999999996  1.4528399999999999 18.4929999999999986
 10.7573000000000008  0.2748340000000000 18.9355000000000011
  6.3671400000000000 12.2832000000000008 18.3154000000000003
  6.5779600000000000 12.0509000000000004 16.9084000000000003
  1.5605700000000000  5.8308999999999997 36.2787000000000006
  2.1454300000000002  7.1463799999999997 36.0300999999999974
  1.6927800000000000  8.9747299999999992 18.0029000000000003
  2.1032199999999999  7.6496300000000002 18.6600999999999999
 10.3267000000000007  1.7268399999999999 25.5716000000000001
 10.9207999999999998  2.9253800000000001 24.6415000000000006
  4.1523300000000001  1.4013800000000001 32.3935000000000031
  5.1312499999999996  2.4952100000000002 32.9519999999999982
  4.9451099999999997  9.7544500000000003 24.8107000000000006
  5.9897400000000003  9.5908200000000008 25.9170000000000016
  7.3772599999999997  7.7082699999999997 39.7672999999999988
  8.6023300000000003  6.9089799999999997 39.2269999999999968
  6.1300900000000000  6.7157200000000001 24.2944999999999993
  7.0279400000000001  7.2074299999999996 23.1632999999999996
 -2.5421200000000002 12.0310000000000006 24.4309000000000012
 -1.8167000000000000 10.7814999999999994 24.8072000000000017
 -0.4355870000000000  3.9998000000000000 14.8604000000000003
 -1.2303200000000001  5.3305899999999999 14.8736999999999995
  9.9184400000000004 10.6180000000000003 21.0609999999999999
 11.0843000000000007  9.7093299999999996 21.3736999999999995
  9.0353899999999996 10.0681999999999992 31.6863999999999990
  8.8582900000000002  9.2794299999999996 33.0257999999999967
  0.1669490000000000  6.9923299999999999 26.8628000000000000
 -1.2472000000000001  6.4564399999999997 26.6282999999999994
  9.2975700000000003  5.7965000000000000 33.2314999999999969
  8.2605100000000000  7.0069499999999998 33.1906000000000034
 -0.4690940000000000  2.8541300000000001 39.4947000000000017
  0.4569470000000000  1.6205700000000001 39.4900999999999982
  4.2915099999999997  6.7274700000000003 39.6687000000000012
  4.7870600000000003  5.2315500000000004 39.6591000000000022
 -5.2325400000000002 10.2757000000000005 15.0449999999999999
 10.1875999999999998 10.9928000000000008 14.8635000000000002
 10.5215999999999994 10.2675999999999998 18.5477999999999987
 10.6736000000000004  9.9986300000000004 17.1832999999999991
  5.6122300000000003  1.0881400000000001 37.5078999999999994
  5.8337700000000003  2.2663000000000002 36.3847999999999985
  6.2769800000000000 13.8948999999999998 39.5865999999999971
  4.9246900000000000 13.7760999999999996 38.7802000000000007
  4.7291200000000000  9.5426900000000003 17.6850999999999985
  6.0582799999999999 10.4667999999999992 17.9560999999999993
  6.5695899999999998  7.7854599999999996 16.1841000000000008
  5.8007900000000001  8.3061399999999992 14.9814000000000007
  3.9569399999999999  3.1385299999999998 20.3359999999999985
  3.7600799999999999  1.6011899999999999 19.8046000000000006
 -1.1681900000000001 13.7420000000000009 28.7952000000000012
 -0.4688480000000000 12.3435000000000006 28.6277000000000008
  4.3574299999999999  5.7982800000000001 35.0411000000000001
  5.7605800000000000  6.4185800000000004 34.2383000000000024
 13.0897000000000006  3.3622200000000002 21.0504999999999995
 13.1661999999999999  3.6838600000000001 19.5943000000000005
 -0.3082670000000000  6.0430299999999999 39.0031000000000034
 -1.6357600000000001  5.7676499999999997 39.8076999999999970
  2.9126799999999999  0.8651180000000001 35.8369000000000000
  2.6415000000000002  2.0167600000000001 34.8393000000000015
  7.6382199999999996  3.9029600000000002 17.3615999999999993
  8.4662199999999999  4.8380400000000003 16.3773000000000017
 14.3102999999999998  2.0497999999999998 31.1984999999999992
 14.4611000000000001  1.3572000000000000 29.8762000000000008
 10.9475999999999996  1.4661100000000000 32.2015999999999991
 10.0008999999999997  0.2060870000000000 32.3061000000000007
 -2.0966900000000002 12.6911000000000005 21.6920999999999999
 -1.6906000000000001 11.2911999999999999 22.0413999999999994
  6.7896400000000003 14.4969999999999999 20.5592000000000006
 14.5942000000000007  1.2211900000000000 20.1794000000000011
  2.3606600000000002 11.8907000000000007 31.4132999999999996
  3.0699399999999999 12.7646999999999995 30.4925999999999995
  1.9023500000000000  9.7199299999999997 37.0200000000000031
  2.7388599999999999 10.9695000000000000 37.0902999999999992
  5.5991900000000001  4.2483000000000004 31.0743000000000009
  6.8923199999999998  5.2070600000000002 30.6826000000000008
  0.1665840000000000 13.7631999999999994 36.6698000000000022
  8.6678099999999993  0.6545920000000000 37.0895999999999972
  7.0587700000000000 14.4720999999999993 15.8596000000000004
  6.6729599999999998 14.1504999999999992 14.4652999999999992
  1.1097800000000000  2.2601800000000001 26.4070999999999998
  2.2895900000000000  2.3205600000000000 25.4218000000000011
 11.9978999999999996  7.6200400000000004 16.6088999999999984
 -3.7359599999999999  7.6762100000000002 15.4220000000000006
 13.0539000000000005  4.8491799999999996 14.8069000000000006
 13.4611999999999998  5.6081099999999999 16.0410000000000004
  5.4890200000000000  9.5365699999999993 38.9262000000000015
  3.8988700000000001  9.2860099999999992 38.7920000000000016
  0.2220830000000000  0.3015260000000000 18.9190000000000005
 -7.7679900000000002 14.2748000000000008 17.5030999999999999
  3.0491000000000001 12.6422000000000008 39.5501000000000005
  1.9059900000000001 13.5137000000000000 39.1959999999999980
  4.3196399999999997 10.5707000000000004 15.2776999999999994
  5.5652999999999997 11.5291999999999994 14.9603000000000002
  5.3169700000000004  5.5370400000000002 21.6131999999999991
  4.3524500000000002  4.3732499999999996 22.1538000000000004
  5.5200600000000000  0.1145190000000000 25.2508000000000017
 -3.5563799999999999 13.6987000000000005 24.1612000000000009
  1.4702800000000000  6.4024099999999997 16.4774999999999991
  0.7287550000000000  5.9743700000000004 15.1125000000000007
  5.1825599999999996  8.3231800000000007 36.3665000000000020
  6.5548999999999999  8.6098300000000005 35.9288999999999987
 -2.2911199999999998 10.4283000000000001 18.1705000000000005
 -3.2327100000000000  9.4492300000000000 17.1772999999999989
 11.2916000000000007  0.5233130000000000 23.7195999999999998
  3.8008400000000000 13.9534000000000002 23.8557999999999986
  1.1486600000000000 12.7288999999999994 20.1898000000000017
  0.6541700000000000 11.2940000000000005 20.4037000000000006
  2.2533799999999999 13.9459000000000000 21.5503999999999998
  3.0557500000000002 13.1826000000000008 20.5420000000000016
  9.6904299999999992  0.9249030000000000 27.8318000000000012
  8.4846800000000009  1.5866600000000000 28.4602000000000004
 12.7766999999999999  6.0027999999999997 24.7464000000000013
 -3.7273999999999998  6.6283799999999999 23.3195000000000014
  3.7715900000000002  6.0081499999999997 26.2122999999999990
  5.1847300000000001  5.2361199999999997 25.9154000000000018
 -5.3194800000000004 14.5098000000000003 30.5625999999999998
  3.6117100000000000  1.3183499999999999 30.2695000000000007
  9.9290599999999998  2.0609099999999998 19.3627000000000002
  8.7006999999999994  1.8160799999999999 20.4324000000000012
  7.7357500000000003 11.7414000000000005 23.7454999999999998
  8.5265900000000006 11.9098000000000006 25.2146000000000008
  0.9012040000000000  3.8499500000000002 21.4387000000000008
  0.4892950000000000  2.4230800000000001 20.8377000000000017
 -3.7580900000000002  8.6312099999999994 34.7687000000000026
 -5.0000799999999996  8.8556799999999996 35.5662000000000020
  4.3522699999999999  7.3361000000000001 24.1617999999999995
  4.2543199999999999  8.1892099999999992 22.9117999999999995
  0.8570440000000000  8.0958500000000004 30.4296000000000006
  2.1562500000000000  9.0445899999999995 30.5052999999999983
 -1.3695100000000000  5.1885199999999996 29.2514000000000003
 -2.3104900000000002  5.5784799999999999 30.4694000000000003
 14.6311000000000000  3.3932099999999998 17.5353999999999992
 13.2113999999999994  3.2415699999999998 17.1533000000000015
 -3.1725300000000001 14.1118000000000006 39.4510000000000005
 -4.5729100000000003 14.0634999999999994 38.7010000000000005
 -3.1480899999999998 10.1716999999999995 36.1291999999999973
 -3.4305500000000002 11.3283000000000005 37.2550999999999988
  2.5587399999999998  0.5984710000000000 14.6446000000000005
 -5.3873100000000003 13.8208000000000002 15.0312999999999999
  7.9757300000000004  9.1357800000000005 37.2558000000000007
  8.9973500000000008  9.0655599999999996 36.2323999999999984
 -0.4372340000000000  8.1179000000000006 37.2591999999999999
 -0.4436620000000000  8.5222099999999994 35.8104000000000013
  9.6833200000000001  5.2709099999999998 14.4268000000000001
 10.1053999999999995  5.6946500000000002 15.8444000000000003
 -1.1738500000000001  2.5854900000000001 32.8361000000000018
 14.9596000000000000  1.4256899999999999 33.3252000000000024
 10.0603999999999996  6.9467999999999996 35.9722000000000008
  9.9665599999999994  7.8481399999999999 34.6856999999999971
  1.6374700000000000  9.0296599999999998 21.9455999999999989
  0.5537950000000000  8.7451399999999992 20.8424000000000014
  7.2084000000000001 10.9397000000000002 29.2576000000000001
  6.4068699999999996 11.0254999999999992 30.4925999999999995
 -3.4771299999999998 12.0640000000000001 16.8613999999999997
 -4.9171500000000004 12.5947999999999993 17.2115000000000009
  7.1828000000000003  3.7445700000000000 32.8235999999999990
  7.6842899999999998  3.4017200000000001 34.2293999999999983
  2.8431199999999999  8.8011700000000008 14.7792999999999992
  1.7911699999999999 10.2500000000000000 14.6064000000000007
 -0.0753257000000000  8.4324200000000005 15.3954000000000004
 -1.1894100000000001  7.9633000000000003 16.3313999999999986
 11.2190999999999992  5.4560800000000000 29.4725999999999999
 10.1288000000000000  6.4944300000000004 29.3787999999999982
  6.0953200000000001  5.7515499999999999 36.6978999999999971
  6.9485599999999996  6.5507600000000004 37.7584999999999980
 10.3648000000000007  5.4163800000000002 37.7115999999999971
 11.4201999999999995  4.5199400000000001 37.1242000000000019
  9.4254999999999995  9.0602699999999992 14.4017999999999997
  8.3578899999999994  7.9042899999999996 14.9258000000000006
  1.7430099999999999  6.3566399999999996 31.3933000000000000
  0.4058170000000000  5.7009499999999997 30.5994999999999990
  6.6725000000000003  4.6138599999999999 20.1163999999999987
  5.7747500000000000  3.2851100000000000 19.8523999999999994
  6.6281900000000000 11.3821999999999992 38.2513999999999967
  7.1397000000000004 11.5625999999999998 39.7856000000000023
 -0.0460241000000000  8.9545499999999993 24.9450000000000003
  1.3103899999999999  9.9204000000000008 24.9681999999999995
  9.9014000000000006  5.0914099999999998 20.4476000000000013
  8.6517800000000005  4.2657100000000003 20.5296999999999983
 -0.2852640000000000 10.8965999999999994 33.7852999999999994
  0.7237430000000000  9.6568400000000008 33.7864000000000004
  2.7522199999999999 12.8114000000000008 35.8175000000000026
  3.4409999999999998 11.7545000000000002 35.1570999999999998
 -3.7360199999999999 13.8486999999999991 27.0016999999999996
 -3.8582700000000001 14.3132000000000001 28.4975999999999985
 10.3542000000000005  7.1288900000000002 22.9104999999999990
  9.2476500000000001  7.6100700000000003 24.0194000000000010
  7.9623799999999996  6.8141100000000003 29.8348000000000013
  8.5398099999999992  5.8287699999999996 28.9417000000000009
  6.5744699999999998 12.7585999999999995 22.1424999999999983
  6.6008100000000001 14.2120999999999995 22.6889000000000003
  7.7008299999999998  1.8384000000000000 23.3070999999999984
  6.6547000000000001  1.5271800000000000 22.2566999999999986
 -1.2643400000000000  4.3962500000000002 27.3884000000000007
 14.0695999999999994  4.7516100000000003 27.3750000000000000
  4.3794100000000000 13.4773999999999994 18.5865000000000009
  4.1554000000000002 12.0200999999999993 18.7576000000000001
  4.5574100000000000  2.8713099999999998 39.4084999999999965
  6.0766299999999998  3.0853799999999998 39.1411000000000016
  1.4163200000000000  7.7896599999999996 32.7914999999999992
  2.6396400000000000  8.9679500000000001 32.8618000000000023
  6.2113600000000000  7.6612499999999999 29.0741000000000014
  6.9846599999999999  8.8080400000000001 29.7592999999999996
 11.8948000000000000  7.9865899999999996 27.8414999999999999
 -3.5839799999999999  8.6119400000000006 28.3575000000000017
 -4.6209499999999997 12.5838000000000001 34.1467000000000027
 -5.7037899999999997 12.0410000000000004 33.2047000000000025
 -0.2903410000000000  2.3203399999999998 25.3961000000000006
 -0.9733630000000000  1.7160100000000000 26.8876999999999988
  7.2846700000000002  4.5908899999999999 38.4373999999999967
  7.9987800000000000  3.2381300000000000 38.1627000000000010
  1.2866400000000000  0.3045270000000000 26.7008000000000010
 -7.4364499999999998 14.4082000000000008 28.0355999999999987
 11.8231999999999999  2.6817600000000001 30.1436999999999991
 10.5398999999999994  2.6042100000000001 29.2284000000000006
  0.1285630000000000  9.6510899999999999 28.3500000000000014
  0.2810610000000000 10.0274000000000001 26.8256000000000014
  1.4923400000000000 10.4902999999999995 39.0249000000000024
  0.0095940200000000 10.0571999999999999 39.0471000000000004
  2.2676599999999998  7.0416900000000000 24.1345999999999989
  0.9294300000000000  7.3825799999999999 24.7890000000000015
 -6.3317399999999999 12.8594000000000008 35.5600999999999985
 -7.3395299999999999 13.6164000000000005 36.5403999999999982
 -2.2968299999999999 13.2024000000000008 14.1610999999999994
 -3.1962600000000001 13.2655999999999992 15.3773000000000000
  3.4403999999999999  3.4047399999999999 30.6759999999999984
  3.2207599999999998  3.8325700000000000 29.2378999999999998
  8.0356199999999998  9.4866600000000005 23.9485999999999990
  8.9715900000000008 10.1342999999999996 22.6326000000000001
 -2.6638999999999999  5.8445799999999997 35.0837000000000003
 12.7559000000000005  5.8789699999999998 35.3688000000000002
 10.2605000000000004  3.8301699999999999 22.7610999999999990
 10.0559999999999992  2.8075800000000002 21.7313000000000009
 -1.4738800000000001  8.0559700000000003 21.1066000000000003
 -1.3695900000000001  9.1077100000000009 20.0200999999999993
  7.5094900000000004  6.2803399999999998 18.3370999999999995
  7.3320900000000000  7.8034100000000004 18.5462999999999987
  0.6783130000000001  2.6100599999999998 16.8290000000000006
  1.1957000000000000  2.6913900000000002 15.4558000000000000
  9.9640500000000003  4.8227300000000000 31.1174999999999997
 11.2285000000000004  5.4870400000000004 31.8033000000000001
  6.3811700000000000  7.9153700000000002 32.4543999999999997
  6.2899599999999998  6.3760800000000000 32.0773999999999972
 12.4176000000000002  7.3638500000000002 30.8841999999999999
 -3.4939100000000001  7.3161800000000001 32.0495999999999981
  9.4954999999999998  6.9236399999999998 17.5044000000000004
  9.8056300000000007  7.7489900000000000 16.2068000000000012
  7.6862899999999996  1.8716100000000000 30.6920000000000002
  6.9674600000000000  2.6046800000000001 29.4904000000000011
 12.1495999999999995  2.7336600000000000 26.4556000000000004
 12.3934999999999995  3.0845600000000002 28.0499000000000009
 -2.5889899999999999 12.1616999999999997 19.6182000000000016
 -2.0972100000000000 12.5641999999999996 18.2670999999999992
  0.1264830000000000  3.5026700000000002 37.1435000000000031
 -0.9183530000000000  4.4640599999999999 36.5587999999999980
 13.8544000000000000  3.0224600000000001 24.6287999999999982
 14.9330999999999996  2.5418400000000001 23.7036000000000016
  6.2436299999999996  4.5395200000000004 15.2756000000000007
  6.4121300000000003  5.8901800000000000 14.5581999999999994
  7.6445699999999999 12.1438000000000006 35.2702999999999989
  8.2064400000000006 11.7232000000000003 33.9382000000000019
  5.6580800000000000 10.6416000000000004 36.1409000000000020
  5.2804599999999997 12.1725999999999992 36.4350999999999985
  1.3691300000000000 13.7280999999999995 28.9719000000000015
 10.4663000000000004  0.3708400000000000 29.9240999999999993
 -0.2461060000000000 12.4253000000000000 25.2312000000000012
  0.4115520000000000 13.1240000000000006 26.5230999999999995
 10.2721999999999998  3.3811100000000001 15.1310000000000002
 10.8823000000000008  1.9497599999999999 15.4377999999999993
 -1.0257200000000000 13.5258000000000003 39.1026000000000025
 -0.0136138000000000 12.2440999999999995 39.2991000000000028
  6.8876600000000003  7.4421799999999996 20.8952999999999989
  7.8106900000000001  6.4000800000000000 21.1782000000000004
 12.0523000000000007  0.5413530000000000 35.0808999999999997
  4.0436800000000002 14.2723999999999993 33.8674000000000035
 12.3884000000000007  6.4302400000000004 39.2822000000000031
 12.5703999999999994  4.8386899999999997 39.3519000000000005
  5.0645300000000004  3.1010100000000000 17.1521000000000008
  3.6537000000000002  3.4503499999999998 16.5869999999999997
 13.6792999999999996  3.5069400000000002 38.0897999999999968
 -2.3630900000000001  4.8339800000000004 38.1552000000000007
  3.9662600000000001  7.8176300000000003 30.3236999999999988
  4.5985800000000001  9.2602899999999995 30.6651999999999987
 12.4061000000000003  5.7961900000000002 21.5958000000000006
 12.1285000000000007  7.1788200000000000 21.2112000000000016
  3.4902500000000001  3.1248499999999999 23.2311000000000014
  3.2252500000000000  2.1663700000000001 22.1717000000000013
 -3.9039299999999999  7.3882800000000000 37.1644000000000005
 12.0077999999999996  8.0115900000000000 38.3667999999999978
 -0.1559990000000000 11.7175999999999991 31.6533000000000015
 -0.0262367000000000 13.1125000000000007 32.4194000000000031
 -2.5953400000000002  9.3213299999999997 15.0265000000000004
 -1.8213299999999999 10.4167000000000005 14.2105999999999995
  7.0586000000000002  9.5025099999999991 20.7519999999999989
  9.4149899999999995 12.4246999999999996 15.7599000000000000
 10.5091000000000001  8.8193000000000001 39.5846000000000018
  8.2488899999999994  0.1310130000000000 33.8113000000000028
  0.7250910000000000 11.3094999999999999 15.4004999999999992
 -6.0993199999999996 12.8496000000000006 30.9633000000000003
  5.8131800000000000  8.1841799999999996 27.1994000000000007
 -4.3871599999999997 10.0031999999999996 21.1327999999999996
  8.0477900000000009  0.9560850000000000 24.9696999999999996
  1.4152300000000000  2.8332099999999998 33.8868999999999971
  3.2819400000000001 13.2573000000000008 15.8529000000000000
 -6.5182700000000002 13.2043999999999997 23.3004999999999995
  2.7672699999999999 10.6151000000000000 17.8924999999999983
 -3.2945600000000002  6.6875900000000001 18.9919000000000011
  8.2889300000000006  3.8954700000000000 35.6824999999999974
  1.8313299999999999  7.1005099999999999 38.3992999999999967
  0.6339370000000000  2.2910100000000000 29.2502999999999993
 -6.6305899999999998 11.8393999999999995 19.4999000000000002
 -4.4773899999999998 10.9955999999999996 29.1999999999999993
  6.4052600000000002  3.9870600000000000 28.6698999999999984
  5.7578199999999997 11.7675999999999998 32.0007999999999981
 -3.4666000000000001  9.5859100000000002 25.0836000000000006
  5.4230000000000000 14.2005999999999997 30.9581000000000017
  7.9239300000000004  0.9330880000000000 17.6376999999999988
  5.9269800000000004  4.0238500000000004 25.7702999999999989
  9.7852899999999998  9.4175799999999992 30.0163000000000011
  9.1122300000000003  0.0526440000000000 14.7043999999999997