 H  O Pt 
 1.0000000000000000
    16.8689999999999998    0.0000000000000000    0.0000000000000000
    -8.4344999999999999   14.6089825363999992    0.0000000000000000
     0.0000000000000000    0.0000000000000000   41.4780000000000015
   H   O  Pt
 460 230 216
Cartesian
  6.8750000000000000  6.5297599999999996 18.2820000000000000
  6.0104100000000003  6.0839999999999996 16.8040999999999983
 -3.0576800000000000 12.4735999999999994 17.7061999999999991
 -3.2061099999999998 10.9370999999999992 17.0776000000000003
  7.7429800000000002 14.5767000000000007 23.7469000000000001
 14.8031000000000006  0.3717430000000000 23.2793999999999990
  3.5629100000000000 11.7613000000000003 20.0206000000000017
  3.6283200000000000 13.2504000000000008 20.3765999999999998
 -3.4433099999999999 13.2111999999999998 23.7238000000000007
  4.7042099999999998  0.1551800000000000 24.2042999999999999
  4.7318400000000000  8.6553100000000001 24.1986999999999988
  4.1267500000000004  7.6656399999999998 23.0909000000000013
 -0.5688360000000000  5.3831100000000003 15.4113000000000007
  0.5267390000000000  6.1260100000000000 14.4575999999999993
  2.8794100000000000 11.5932999999999993 26.7636000000000003
  2.8270900000000001 12.9499999999999993 27.6679999999999993
  0.4476850000000000  7.8737000000000004 23.8768999999999991
  0.3987920000000000  6.8422900000000002 25.1648999999999994
  3.2109500000000000  3.1160000000000001 38.8813000000000031
  3.4396499999999999  4.3780000000000001 39.7631999999999977
 -1.8674999999999999 11.0358000000000001 19.3562000000000012
 -1.0765899999999999 11.5753000000000004 20.6293000000000006
 12.1784999999999997  2.8545099999999999 22.1489000000000011
 12.7002000000000006  2.8435400000000000 23.6348999999999982
 -1.4753000000000001 13.7157000000000000 25.0433999999999983
 -0.3244570000000000 13.1289999999999996 26.1380000000000017
 -5.5793699999999999 12.9248999999999992 20.7276999999999987
 -4.9879499999999997 13.1373999999999995 19.3822000000000010
  4.0783399999999999  1.5433200000000000 37.7102999999999966
  3.3807999999999998  0.9828860000000000 39.0217000000000027
  1.6074500000000000 11.4295000000000009 39.0617000000000019
  2.7433800000000002 10.5055999999999994 39.0591999999999970
  0.2947420000000000  7.0700500000000002 19.7116000000000007
 -0.4286570000000000  8.0766299999999998 20.6399000000000008
 -4.2561999999999998 10.1562000000000001 33.4968999999999966
 -4.3558599999999998  8.6133500000000005 33.7884000000000029
 -0.3942910000000000  2.7195000000000000 29.9385000000000012
  0.3791170000000000  2.6899000000000002 31.2311000000000014
  3.7850199999999998  8.8586299999999998 38.4219000000000008
  3.2470699999999999  7.9315499999999997 39.6071000000000026
 -1.6424099999999999  5.0912100000000002 33.1584000000000003
 -2.1441300000000001  4.3090999999999999 34.3924999999999983
  8.5582399999999996  5.0850700000000000 20.4848999999999997
  9.0141100000000005  3.6830099999999999 20.9189000000000007
 -0.3990340000000000  4.8212599999999997 24.9436999999999998
 -0.7763139999999999  5.3330900000000003 26.2661000000000016
  5.1931700000000003 12.3331000000000000 21.9425999999999988
  6.4952899999999998 12.9083000000000006 22.8143999999999991
  0.0041694300000000  7.3614300000000004 32.3036999999999992
  1.3916700000000000  6.8510799999999996 32.1863999999999990
 11.9743999999999993  6.5879899999999996 32.2569000000000017
 11.7584999999999997  6.1749400000000003 33.6396000000000015
 -1.2599800000000001  8.6798500000000001 14.3152000000000008
 -1.2458899999999999  7.9958900000000002 15.9011999999999993
  6.6967499999999998 11.1967999999999996 25.8093000000000004
  7.6309699999999996 10.1570000000000000 25.1690000000000005
  2.8952200000000001 11.1842000000000006 24.1249000000000002
  2.9588899999999998 11.7138000000000009 22.6310000000000002
  9.9626199999999994  7.1965800000000000 20.3582000000000001
 10.2767999999999997  8.3713999999999995 21.2285000000000004
  0.2617960000000000  1.6785600000000001 36.1366999999999976
 16.1129999999999995  0.7306859999999999 35.5131999999999977
  2.8489800000000001  2.1951200000000002 20.9017000000000017
  3.3976299999999999  0.7175940000000000 20.7835000000000001
 10.7986000000000004  5.5427799999999996 27.9264000000000010
  9.8966499999999993  6.3152900000000001 26.9902000000000015
  5.2605300000000002  4.7872000000000003 34.1927999999999983
  5.7642899999999999  4.9230400000000003 32.7164000000000001
 10.9841999999999995  2.3301400000000001 26.3555999999999990
  9.8824699999999996  3.3190499999999998 25.8642000000000003
  9.3896099999999993  9.7117900000000006 16.4488999999999983
  8.3938799999999993  8.5078099999999992 16.7145000000000010
  0.6100960000000000 11.3788000000000000 27.3995999999999995
 -0.8004150000000000 11.4974000000000007 28.1047000000000011
  5.3220200000000002 13.9849999999999994 31.3800999999999988
  3.9588999999999999 13.4212000000000007 31.5931999999999995
 -4.0593800000000000 11.6912000000000003 22.1544999999999987
 -2.7080500000000001 12.3646999999999991 21.8198000000000008
  6.1575600000000001 13.0641999999999996 36.8275999999999968
  6.1747300000000003 13.2881999999999998 35.3359000000000023
  1.2226999999999999  4.1547400000000003 15.2335999999999991
  2.2255199999999999  2.8738700000000001 15.2690999999999999
 14.1367999999999991  3.3857699999999999 32.2032999999999987
 13.2620000000000005  3.0148600000000001 30.6970999999999989
  1.7450100000000000  5.8794100000000000 18.1000000000000014
  0.5984730000000000  5.6827600000000000 17.0073000000000008
  4.6495800000000003  4.6629600000000000 30.7442999999999991
  4.8360700000000003  6.1786399999999997 30.5908000000000015
  3.0983800000000001  0.8544810000000000 29.4563999999999986
  1.6567499999999999  1.1350400000000000 29.9836999999999989
 -1.8439700000000001  7.7899099999999999 36.8684000000000012
 -1.3962500000000000  9.0878700000000006 37.4906999999999968
 -0.8168050000000000  9.5131499999999996 29.3414000000000001
 -0.6993680000000000 10.3483999999999998 30.6814000000000000
 -4.0188699999999997  7.6625399999999999 21.6892999999999994
 -2.6484500000000000  8.1815599999999993 22.2073000000000000
  3.5051999999999999  8.8734800000000007 34.3609999999999971
  3.3193299999999999  7.7401600000000004 35.3288999999999973
 -2.5364300000000002  7.1127000000000002 17.5831000000000017
 -1.5886700000000000  8.1945999999999994 18.3858999999999995
  7.1668200000000004  9.6173000000000002 19.2396999999999991
  8.5422999999999991  9.5060199999999995 18.5372999999999983
  0.0703331000000000  8.7384799999999991 35.9887999999999977
  1.4780599999999999  8.9404199999999996 35.2952999999999975
  7.0911900000000001  1.0027100000000000 37.2890000000000015
  6.3154000000000003  0.2986640000000000 36.1231999999999971
 -4.0450900000000001 10.6793999999999993 36.8483999999999980
 -3.4800499999999999  9.8262699999999992 35.5912000000000006
  2.9426899999999998 11.2126000000000001 33.1214000000000013
  2.2649499999999998 12.4319000000000006 33.5534999999999997
 -2.3875000000000002  8.8736700000000006 25.9731999999999985
 -2.9648200000000000  8.3571100000000005 27.3669000000000011
  6.0095499999999999  0.8021960000000000 27.9933000000000014
  6.9826800000000002  0.4846120000000000 26.9542000000000002
 11.8571000000000009  4.0136599999999998 35.7453999999999965
 12.7840000000000007  3.0361600000000002 36.5352000000000032
 -4.3057699999999999  8.6561800000000009 39.5874000000000024
 -3.7542200000000001  8.9765999999999995 38.1133999999999986
 10.7475000000000005 10.2463999999999995 27.7623999999999995
 10.7363999999999997  9.3744899999999998 29.2125999999999983
  6.1269600000000004 13.5250000000000004 26.9792999999999985
  5.6180899999999996 13.4408999999999992 25.5874999999999986
  8.0994499999999992  9.2092200000000002 29.4113000000000007
  6.6969099999999999  8.5939300000000003 29.4573000000000000
  0.9512130000000000  2.9319199999999999 19.5530000000000008
  1.3403700000000001  4.1638099999999998 20.4203000000000010
  9.2242700000000006 12.0357000000000003 21.3228000000000009
 -7.1667899999999998 12.6793999999999993 22.5323999999999991
 10.2428000000000008  8.4361899999999999 36.0442999999999998
  9.8941900000000000  7.1424099999999999 36.8290999999999968
  7.4919300000000000  4.0232799999999997 33.6340999999999966
  8.5519300000000005  2.7282700000000002 34.0403999999999982
  2.6620200000000001  4.0415299999999998 25.2205000000000013
  3.9945300000000001  4.6886599999999996 25.5112999999999985
  7.6263899999999998 13.4760000000000009 28.9574999999999996
 -7.5740400000000001 13.7370999999999999 29.0953000000000017
  4.8664100000000001  2.2574200000000002 14.8222000000000005
  4.5696300000000001  0.7522200000000000 15.1744000000000003
  2.8171200000000001  7.7446900000000003 25.8811999999999998
  4.0016699999999998  7.9504900000000003 26.8487000000000009
  1.8193500000000000  0.2724850000000000 22.9995000000000012
 -6.6766600000000000 14.1838999999999995 24.3816999999999986
 10.2297999999999991  0.1881260000000000 24.9750000000000014
  9.5071700000000003  0.4625210000000000 26.4177999999999997
  4.0964200000000002 13.4758999999999993 38.5756999999999977
  3.9406099999999999 14.3293999999999997 39.8374999999999986
 14.7387999999999995  0.5537240000000000 18.5738999999999983
 14.7658000000000005  1.8707199999999999 17.6842000000000006
  2.8378100000000002  6.3094599999999996 33.8851000000000013
  3.2025500000000000  5.8837400000000004 32.3085000000000022
 -5.6479799999999996 12.1905000000000001 25.9724000000000004
 -4.8451399999999998 13.5115999999999996 25.4168999999999983
  9.1693700000000007  1.8162900000000000 30.6034000000000006
  8.0838999999999999  1.2288399999999999 29.5122000000000000
  3.3227099999999998 11.3079000000000001 37.2194000000000003
  3.5697700000000001 12.2066999999999997 36.0752999999999986
 13.3421000000000003  4.1975400000000000 25.2007000000000012
 14.5424000000000007  3.5127600000000001 24.3804000000000016
  4.8228600000000004  2.9170500000000001 32.7858000000000018
  4.0908600000000002  2.3285700000000000 31.5128999999999984
  5.1247199999999999 10.4552999999999994 25.1420999999999992
  3.9409500000000000  9.7709399999999995 26.0905999999999985
  2.0093500000000000  8.8489299999999993 20.6280000000000001
  2.2042199999999998  8.6270799999999994 19.0742000000000012
  4.1403800000000004 12.6846999999999994 17.3007999999999988
  5.3329300000000002 12.6752000000000002 16.2306999999999988
  4.2631600000000001  9.1450300000000002 20.0731000000000002
  5.3797499999999996  9.8778299999999994 20.9311000000000007
  1.4043600000000001  1.8897600000000001 25.4643000000000015
  2.8396400000000002  1.8582000000000001 24.8404999999999987
  4.9355500000000001  8.0154200000000007 17.1399000000000008
  4.5159500000000001  7.1470799999999999 15.9461999999999993
 10.9230999999999998  4.9645700000000001 30.9923999999999999
 12.4261999999999997  4.5844800000000001 31.1668999999999983
  9.9525699999999997  8.0079399999999996 25.1064000000000007
 11.2830999999999992  7.0244499999999999 25.1005000000000003
  8.9546399999999995  7.7077799999999996 39.2087000000000003
  9.2022399999999998  6.2646600000000001 38.8181999999999974
  5.6192299999999999  8.7641799999999996 31.3390999999999984
  5.7742500000000003  9.1347299999999994 32.8826999999999998
  5.9270399999999999  8.6501400000000004 15.5688999999999993
  6.8624999999999998  8.8075600000000005 14.2583000000000002
 10.8103999999999996  9.3482099999999999 38.8689999999999998
 10.0665999999999993 10.0886999999999993 37.7590999999999966
 10.7431999999999999  0.3881730000000000 29.4765000000000015
  3.6330800000000001 14.1678999999999995 29.7999000000000009
 -0.7520870000000000 13.8115000000000006 18.0807000000000002
  0.7040000000000000 14.2324000000000002 17.8997999999999990
  2.3539699999999999 11.8056000000000001 14.7576000000000001
  0.8394360000000000 12.0119000000000007 15.0288000000000004
  7.0325699999999998  8.9161800000000007 38.9628000000000014
  7.8451500000000003 10.2532999999999994 38.8791999999999973
  5.1410900000000002  2.3803299999999998 36.0305999999999997
  3.9837099999999999  2.2618800000000001 34.9793999999999983
  9.1039399999999997  6.2947300000000004 24.0675999999999988
  8.7521699999999996  5.5288199999999996 22.7110999999999983
  1.1342300000000001 11.7577999999999996 35.4104999999999990
  0.1530580000000000 12.2820000000000000 34.2361999999999966
 -3.7508300000000001  7.0559099999999999 37.2012000000000000
 13.0408000000000008  5.7599000000000000 36.3537000000000035
  1.8819399999999999  3.3597399999999999 35.9829000000000008
  1.2524500000000001  3.0512299999999999 34.5450000000000017
 -1.8616600000000001 14.1489999999999991 14.2728999999999999
 -0.4691730000000000 14.0012000000000008 15.0617000000000001
 11.4080999999999992  2.8424700000000001 14.1798000000000002
 11.5756999999999994  1.4251199999999999 15.0523000000000007
  2.5121000000000002  5.2197899999999997 27.1234999999999999
  1.7207800000000000  5.7750300000000001 28.4590999999999994
  5.1752300000000000  4.7812200000000002 37.1597999999999971
  6.7671599999999996  4.5055100000000001 37.0820000000000007
  2.2304599999999999 13.8902999999999999 14.9766999999999992
  3.5738099999999999 13.9573000000000000 15.7035000000000000
  4.0181399999999998  1.7028099999999999 22.4718000000000018
  5.2248200000000002  2.2888000000000002 23.4608999999999988
  9.5076699999999992  3.3985099999999999 15.4100000000000001
  9.3387200000000004  4.5427200000000001 14.2443000000000008
  6.1059799999999997  3.6257299999999999 29.4835999999999991
  4.7499599999999997  3.6166700000000001 28.7942999999999998
 -2.1760000000000002 10.2928999999999995 22.6305000000000014
 -1.5007900000000001  9.2416499999999999 23.5942000000000007
 13.1882000000000001  1.8839900000000001 28.2744000000000000
 11.9598999999999993  2.7046999999999999 28.9692000000000007
  9.5510800000000007  2.7716200000000000 38.9108999999999980
  8.0027299999999997  2.7135300000000000 39.4440000000000026
 -0.4519070000000000  3.0743800000000001 23.3569999999999993
 -0.9952790000000000  4.4565799999999998 22.6949000000000005
 -7.0240099999999996 14.3743999999999996 15.7904999999999998
  2.4270100000000001  0.5156780000000000 14.9283999999999999
  9.4322599999999994  7.7802100000000003 30.6265000000000001
  9.9442400000000006  7.1402299999999999 29.2956000000000003
  6.4790500000000000  6.3245100000000001 38.3840000000000003
  5.2801499999999999  7.4705000000000004 38.5514000000000010
  2.0930100000000000 12.6026000000000007 17.9298999999999999
  2.7152300000000000 11.2149000000000001 17.6011999999999986
  3.5835800000000000  5.0222400000000000 19.9282000000000004
  3.0215600000000000  6.4119299999999999 20.2836999999999996
  1.3020400000000001  3.4529000000000001 28.5706999999999987
  0.2314610000000000  3.2449400000000002 27.5794999999999995
 -1.4381200000000001 12.6181999999999999 33.0557999999999979
 -1.7216700000000000 11.0676000000000005 33.4754999999999967
 -5.7946000000000000 10.1233000000000004 34.9042999999999992
 -6.4219400000000002 11.2706000000000000 35.5829999999999984
  6.7018199999999997 13.9614999999999991 39.2721999999999980
  6.6362300000000003 12.3916000000000004 39.3577999999999975
 13.4153000000000002  4.1804199999999998 17.7595999999999989
 14.1231000000000009  4.7451100000000004 19.0140999999999991
  3.6021100000000001 -0.1365110000000000 33.6396000000000015
 -4.1066500000000001 14.4251000000000005 35.0638000000000005
  2.2046000000000001  7.8201999999999998 14.2677999999999994
  1.2282700000000000  8.8864099999999997 14.8915000000000006
  9.3194400000000002  6.2413100000000004 18.4390999999999998
  8.5815300000000008  7.4996999999999998 18.9719000000000015
  8.1251400000000000  7.4891500000000004 35.3474000000000004
  6.9688699999999999  7.5261699999999996 36.4253000000000000
  4.4176500000000001 10.6484000000000005 14.5558999999999994
  3.0905999999999998  9.8322099999999999 14.9365000000000006
 10.1152999999999995  4.4336200000000003 34.2723999999999975
 10.2373999999999992  5.7147600000000001 35.0174999999999983
  9.9748800000000006 11.2385000000000002 14.8568999999999996
 -5.6584399999999997 10.3328000000000007 14.9029000000000007
 -0.6814970000000000 10.3709000000000007 25.5701999999999998
 -0.3429860000000000  8.6767000000000003 25.2243999999999993
  8.2443200000000001  4.3909000000000002 24.3386999999999993
  7.2075300000000002  3.3369599999999999 25.1209999999999987
  2.9511400000000001 10.3736999999999995 29.6299999999999990
  2.3211300000000001  9.3909599999999998 28.4828000000000010
 -0.6484130000000000 10.7359000000000009 38.8391999999999982
 -2.1690999999999998 11.2034000000000002 38.5189999999999984
  6.4840900000000001  5.0560400000000003 14.6159999999999997
  7.5912800000000002  4.9812700000000003 15.6189999999999998
  8.7806400000000000  4.1300699999999999 30.3704999999999998
  8.9043799999999997  3.7949199999999998 31.8670000000000009
 10.3408999999999995  1.2739000000000000 16.9069000000000003
  8.9927200000000003  2.0894400000000002 17.6419999999999995
 -6.4453899999999997 12.4837000000000007 17.4787999999999997
 -5.6817099999999998 11.2866000000000000 17.7820999999999998
 14.3811000000000000  1.5170999999999999 20.4317999999999991
 13.6705000000000005  1.5555399999999999 21.8490000000000002
 14.4902999999999995  2.6751000000000000 15.4773999999999994
 12.8309999999999995  2.8715500000000000 15.4184999999999999
 -1.5031000000000001  8.9665400000000002 33.1321000000000012
 -0.0532825000000000  9.4709400000000006 33.7462999999999980
 -0.5481540000000000 11.3562999999999992 16.9362999999999992
 -0.6313060000000000 10.2439000000000000 15.6892999999999994
  5.2281500000000003  6.6219099999999997 35.5985999999999976
  3.8508100000000001  5.8454199999999998 36.0720999999999989
 -4.2022500000000003 11.0257000000000005 28.0453000000000010
 -4.2593500000000004 12.4174000000000007 27.5576000000000008
  6.7402600000000001  3.1720799999999998 17.5688999999999993
  6.9863600000000003  1.7418100000000001 17.1477000000000004
 -2.8647200000000002 12.9435000000000002 36.7916000000000025
 -2.5501600000000000 12.8798999999999992 35.2668000000000035
  3.4484900000000001  5.3150599999999999 16.0939000000000014
  3.7476900000000000  5.6767599999999998 14.6410999999999998
 -0.2550510000000000 14.3320000000000007 38.9031000000000020
  7.1333799999999998  0.5818850000000000 39.6430000000000007
  8.6524900000000002  9.5011700000000001 23.7197999999999993
  9.4954599999999996 10.8376999999999999 23.4522000000000013
  8.4418199999999999 13.4381000000000004 17.2325000000000017
  8.1159400000000002 12.5381999999999998 16.0244000000000000
 -2.6994500000000001  5.5522400000000003 38.5328999999999979
 -1.1102700000000001  5.6700299999999997 38.8455000000000013
  9.1178600000000003  2.0699600000000000 23.7178000000000004
 10.7062000000000008  1.7322800000000000 23.3657000000000004
 -5.8639700000000001 10.8148000000000000 21.3097999999999992
 -4.7293700000000003 10.4756999999999998 20.3425000000000011
 -6.4521800000000002 12.9784000000000006 37.6653999999999982
 -6.5674599999999996 11.8452000000000002 38.6814999999999998
 -4.5149400000000002 12.7144999999999992 38.8186000000000035
 -3.1106099999999999 12.6876999999999995 39.4838999999999984
 16.0024000000000015  0.4092060000000000 26.1723999999999997
  0.1689880000000000  0.2425340000000000 27.2954000000000008
 -0.0191973000000000  4.9288600000000002 35.2346999999999966
  0.5701190000000000  6.1479699999999999 35.9750000000000014
 -5.3009399999999998 14.5641999999999996 31.5031999999999996
 -4.1869899999999998 13.6555999999999997 31.1568000000000005
  3.2131599999999998 -0.0154343000000000 27.0198000000000000
  2.9064199999999998  1.5039400000000001 26.9305999999999983
  2.0931799999999998 11.7866000000000000 31.3626000000000005
  1.2637400000000001 12.3678000000000008 30.1873000000000005
  0.4494060000000000 13.1098999999999997 21.1874000000000002
  0.6709640000000000 11.9981000000000009 22.3654000000000011
 -1.3216100000000000  6.7597199999999997 28.5198000000000000
 -2.4883099999999998  7.6283300000000001 29.2955000000000005
 -3.6042500000000000  7.2969700000000000 25.6151000000000018
 -3.5633800000000000  7.1629199999999997 24.0432999999999986
 13.1544000000000008  6.6347899999999997 15.7899999999999991
 12.3716000000000008  7.2352900000000000 16.9979000000000013
 -5.6566000000000001 12.7457999999999991 30.3448999999999991
 -6.3431499999999996 11.7675999999999998 29.3585999999999991
 12.8363999999999994  1.9794600000000000 39.2231000000000023
 13.2368000000000006  3.5203799999999998 38.9680000000000035
 15.5142000000000007  0.9698090000000000 31.3138000000000005
  7.7347299999999999 14.1978000000000009 31.1198000000000015
 12.1044999999999998  4.3725899999999998 20.1566000000000010
 10.7788000000000004  4.3144999999999998 20.9220000000000006
 -2.5004200000000001 14.5234000000000005 16.6581000000000010
  5.2870999999999997  0.6634920000000000 17.9259999999999984
 -3.6885300000000001  9.3177599999999998 15.5021000000000004
 -3.4013300000000002 10.0733999999999995 14.2524999999999995
 10.7774000000000001  2.6246100000000001 37.1846999999999994
 10.1111000000000004  1.2315900000000000 37.9029999999999987
  6.2433699999999996 11.4001999999999999 29.3175999999999988
  5.5723799999999999 12.7149000000000001 29.7479000000000013
  7.6989000000000001  6.2469700000000001 29.0019999999999989
  8.1031499999999994  5.0641699999999998 28.1961000000000013
 -6.4381899999999996 14.1007999999999996 39.5024000000000015
  0.6062760000000000  0.4365000000000000 39.6355000000000004
  0.5667100000000000 13.7401000000000000 36.6743999999999986
  1.8190999999999999 14.3150999999999993 36.0153000000000034
  4.2072300000000000  2.5711599999999999 18.1569000000000003
  3.2304800000000000  1.8764799999999999 17.0415999999999990
  7.6844200000000003  7.6517200000000001 31.7442999999999991
  8.3741099999999999  8.9234799999999996 32.2494999999999976
  2.1256900000000001  4.1319699999999999 32.9414000000000016
  2.4816300000000000  2.5655000000000001 32.8714999999999975
  6.1617699999999997 13.3209000000000000 17.7166999999999994
  7.1511699999999996 13.2737999999999996 19.2058000000000000
 -0.2468390000000000  4.1600900000000003 39.4761000000000024
  1.3349400000000000  3.6908300000000001 39.6428000000000011
  2.6463800000000002  5.8159000000000001 23.5652000000000008
  2.8225699999999998  5.7694599999999996 21.9516999999999989
 -3.5234700000000001 12.6489999999999991 14.8709000000000007
 -4.7255000000000003 12.8264999999999993 15.8045000000000009
  0.4714420000000000  7.4241200000000003 39.6182999999999979
 -0.3014260000000000  7.2697200000000004 38.3104000000000013
  0.9291810000000000 12.8038000000000007 39.9996999999999971
  1.9163100000000000 13.4060000000000006 38.9196000000000026
 14.4532000000000007  3.6827600000000000 26.8143999999999991
 14.1051000000000002  4.2441700000000004 28.1864999999999988
 -2.2402199999999999 13.5959000000000003 30.1606999999999985
 -3.3851700000000000 12.9392999999999994 29.2846000000000011
  3.8808900000000000  9.0156399999999994 32.3149000000000015
  2.3090199999999999  8.9582999999999995 32.3087999999999980
  5.6599300000000001  3.7472799999999999 19.8332000000000015
  5.7443799999999996  4.7453000000000003 18.5514000000000010
 11.8064000000000000  6.3395700000000001 39.1141999999999967
 11.4549000000000003  4.8763699999999996 39.3509999999999991
  6.1311600000000004  5.0305400000000002 22.4637999999999991
  4.7903799999999999  4.2242899999999999 22.3047000000000004
 -4.1027699999999996  9.4240399999999998 18.5670999999999999
 11.5559999999999992  8.7500599999999995 19.2337999999999987
 14.0025999999999993  0.9026040000000000 34.3091000000000008
 15.1603999999999992  0.2928280000000000 33.4397000000000020
 12.2133000000000003  2.1643200000000000 34.9142999999999972
 12.4011999999999993  2.5908099999999998 33.3038999999999987
 13.2492999999999999  1.2518499999999999 25.6739999999999995
 11.9458000000000002  0.5501620000000000 26.3216999999999999
  2.6275800000000000  5.3413399999999998 37.5095999999999989
  2.5567500000000001  6.8914299999999997 37.3982999999999990
  7.9989699999999999  7.6324399999999999 22.9873000000000012
  6.8989000000000003  8.6818799999999996 22.7483000000000004
 -2.7050200000000002  7.2432999999999996 33.5397000000000034
 -1.3465800000000001  7.0586700000000002 34.3825999999999965
  0.1454730000000000  9.9498200000000008 21.7058999999999997
  1.5332900000000000  9.9457000000000004 22.3932000000000002
  5.3015200000000000  2.2726899999999999 39.1692999999999998
  6.1245599999999998  3.6387999999999998 39.1186999999999969
 -5.4417499999999999 12.3070000000000004 32.4517000000000024
 -5.8886300000000000 10.9735999999999994 32.0521000000000029
  4.1268900000000004  8.2020300000000006 29.4892000000000003
  5.2389500000000000  7.6329900000000004 28.6213000000000015
 -1.9862000000000000  5.9608800000000004 21.9823999999999984
 -0.8945260000000000  5.9170400000000001 20.9605999999999995
 16.1157000000000004  1.4611300000000000 14.1133000000000006
  0.0078948600000000  1.1857100000000000 15.4192000000000000
 13.0922000000000001  6.0048199999999996 28.0797999999999988
 12.2622999999999998  5.3723200000000002 29.2384999999999984
 -0.7260290000000000  1.5034900000000000 21.8348000000000013
  0.4629200000000000  2.4606300000000001 21.5558000000000014
  6.1938899999999997  9.0126799999999996 26.9364999999999988
  6.3598299999999997  7.5351400000000002 26.6484999999999985
  2.2548499999999998  8.9066299999999998 16.8639000000000010
  1.1256900000000001  9.7431800000000006 17.6555000000000000
  8.9049200000000006  1.1958500000000001 35.0696000000000012
 10.2077000000000009  1.3803700000000001 33.9530000000000030
 10.6953999999999994 10.3498999999999999 25.1553000000000004
 -4.9198800000000000  9.5427900000000001 25.7928999999999995
 -2.5772200000000001  5.6658299999999997 14.1737000000000002
 -2.7006399999999999  4.7088900000000002 15.2848000000000006
 -1.8986499999999999  4.8014999999999999 36.4012000000000029
 -2.0775500000000000  3.7074400000000001 37.2413999999999987
 11.3958999999999993  5.1493599999999997 17.6984999999999992
 10.0451999999999995  5.0222499999999997 16.7243999999999993
 12.7300000000000004  1.1743800000000000 19.2664000000000009
 11.1852000000000000  1.1982400000000000 18.7273999999999994
  7.9803699999999997 10.7948000000000004 31.1339000000000006
  7.8095900000000000 11.2804000000000002 32.5775000000000006
  5.4763000000000002 10.2377000000000002 38.5476000000000028
  4.5926000000000000 10.9979999999999993 39.4739999999999966
 -3.2513200000000002  9.2624300000000002 30.2846000000000011
 -4.5264899999999999  8.4464900000000007 30.5440000000000005
  0.2850870000000000  6.3761200000000002 30.3514000000000017
 -0.1557520000000000  5.2613300000000001 29.2288999999999994
  5.6484300000000003  6.8132599999999996 24.5427999999999997
  6.9147999999999996  5.8789499999999997 24.6042999999999985
 16.2286999999999999  0.5632650000000000 38.0054000000000016
 15.2731999999999992  1.3429899999999999 38.9508999999999972
  6.5142800000000003 11.7172999999999998 14.6164000000000005
  6.7538400000000003 10.4952000000000005 15.5685000000000002
  9.5485399999999991  0.4831530000000000 21.6320000000000014
  9.9254599999999993  0.1842210000000000 20.1445000000000007
 -7.3212299999999999 14.1475000000000009 36.0977000000000032
 -5.9471499999999997 13.7370000000000001 35.3719999999999999
  7.3164300000000004 12.2925000000000004 21.0120000000000005
  8.0386699999999998 11.3092000000000006 20.0173999999999985
  6.5084000000000000 -0.0433997000000000 32.6366000000000014
  7.6135999999999999  0.3538180000000000 31.5064999999999991
 10.7455999999999996  7.0869000000000000 14.9957999999999991
  9.5198099999999997  7.9939299999999998 14.7858000000000001
  7.4900900000000004  1.0932700000000000 20.3445000000000000
  6.2267599999999996  1.8798299999999999 20.0672999999999995
  6.3991400000000001  3.0924100000000001 27.3057000000000016
  6.2456600000000000  4.5876599999999996 26.8035999999999994
  8.5106300000000008  3.5762000000000000 37.5352000000000032
  8.3125599999999995  3.6679800000000000 36.0232999999999990
  6.6768000000000001 10.9680999999999997 35.0180000000000007
  6.9165000000000001  9.3779199999999996 34.8126000000000033
  0.3918540000000000  2.8545600000000002 17.3778000000000006
  1.2141999999999999  1.8488400000000000 17.8448999999999991
  5.9417499999999999  6.2441199999999997 17.8514000000000017
 -2.7805399999999998 11.5139999999999993 17.8350000000000009
  6.8176300000000003 14.2606000000000002 23.7298000000000009
  3.5940300000000001 12.3253000000000004 20.7937000000000012
 -3.4885500000000000 13.7947000000000006 24.5336999999999996
  4.9451700000000001  8.1355900000000005 23.4226999999999990
  0.4007450000000000  5.5028400000000000 15.2490000000000006
  2.3380800000000002 12.1293000000000006 27.3609000000000009
  0.7494840000000000  7.7167399999999997 24.8252999999999986
  2.9878499999999999  4.0937299999999999 38.9367999999999981
 -1.5263700000000000 10.8072999999999997 20.2212999999999994
 12.3147000000000002  2.2375099999999999 22.9581000000000017
 -0.5906880000000000 13.8028999999999993 25.4636999999999993
 -4.8509900000000004 13.5043000000000006 20.2840999999999987
  3.8913600000000002  1.7186600000000001 38.6606999999999985
  1.8377200000000000 10.4976000000000003 39.3571000000000026
 -0.5718030000000000  7.2858099999999997 20.0853000000000002
 -4.2772399999999999  9.5231600000000007 34.2197999999999993
 -0.4897860000000000  2.4098600000000001 30.8554999999999993
  3.5011500000000000  7.9187599999999998 38.5842999999999989
 -1.7246100000000000  4.1599100000000000 33.4906000000000006
  9.0756399999999999  4.6192200000000003 21.1600000000000001
 -0.0373917000000000  5.3742900000000002 25.6589999999999989
  6.1619700000000002 12.2776999999999994 22.0946999999999996
  0.8216120000000000  7.5133999999999999 31.7794999999999987
 12.1056000000000008  6.9977700000000000 33.1706999999999965
 -0.7919550000000000  8.3851099999999992 15.1031999999999993