 H  O Pt 
 1.0000000000000000
    16.8689999999999998    0.0000000000000000    0.0000000000000000
    -8.4344999999999999   14.6089825363999992    0.0000000000000000
     0.0000000000000000    0.0000000000000000   41.4780000000000015
   H   O  Pt
 460 230 216
Cartesian
 11.8045000000000009  3.7881600000000000 30.6664999999999992
 12.2788000000000004  4.7948100000000000 31.9494000000000007
  9.9000500000000002  2.0282700000000000 23.1555999999999997
  9.9420800000000007  2.6088800000000001 21.7517999999999994
 -0.4131100000000000  9.1140200000000000 17.7990999999999993
 -1.8574900000000001  9.7025000000000006 17.6478000000000002
 -3.5522600000000000 12.3629999999999995 28.3093000000000004
 -2.8370899999999999 13.1698000000000004 27.0960000000000001
 -1.0704499999999999  5.3371300000000002 21.9758999999999993
  0.0604781000000000  6.6092000000000004 22.1388999999999996
  3.9519000000000002  7.7470600000000003 15.2904000000000000
  3.5158800000000001  6.5872999999999999 14.3704999999999998
 14.1270000000000007  0.6643400000000000 16.0981999999999985
  5.8880900000000000 14.4126999999999992 14.8508999999999993
  2.4869900000000000 12.5433000000000003 23.2040000000000006
  2.8828600000000000 13.8681999999999999 24.0166000000000004
  7.0192800000000002  1.1673800000000001 19.6167000000000016
  5.7533599999999998  2.0088900000000001 20.1154000000000011
 -3.0582900000000000 12.5721000000000007 22.2364999999999995
 -1.8839800000000000 12.0960999999999999 21.3521000000000001
  6.4649200000000002 12.6356999999999999 20.2088999999999999
  5.0465000000000000 12.5517000000000003 19.6910999999999987
 -1.5657300000000001  7.1565099999999999 39.3659999999999997
 -0.3112260000000000  7.7726400000000000 38.6509000000000000
  4.2819399999999996  1.9827800000000000 21.7029999999999994
  3.3973800000000001  2.5301399999999998 20.5335999999999999
  4.2409800000000004  3.3970699999999998 26.9164999999999992
  5.0052800000000000  2.2812399999999999 27.4771000000000001
 -0.0331716000000000 11.1273000000000000 19.5078999999999994
 -1.4019299999999999 10.6371000000000002 19.5376000000000012
 12.2887000000000004  5.9608499999999998 33.5240999999999971
 -3.7343999999999999  6.6386700000000003 32.3459999999999965
 -2.7670499999999998 14.3263999999999996 37.6176000000000030
  4.9124600000000003  1.0733900000000001 37.6522000000000006
 -4.0045999999999999 11.3245000000000005 16.6015000000000015
 -4.0412499999999998  9.7538900000000002 16.3078000000000003
  5.9408700000000003  3.6790900000000000 39.3915999999999968
  4.8648199999999999  2.6766500000000000 39.3226000000000013
 -2.7225199999999998  9.0164100000000005 38.3325000000000031
 -3.1877499999999999  9.2573500000000006 39.7749999999999986
  7.9808700000000004  3.2125499999999998 20.5722999999999985
  9.0877900000000000  4.0479000000000003 20.2530999999999999
  5.9112900000000002  6.2535400000000001 15.0222999999999995
  6.4424999999999999  5.5078699999999996 16.3275000000000006
 14.1522000000000006  2.6742300000000001 33.6668999999999983
 -2.1076899999999998  4.1351300000000002 33.7879999999999967
  6.5834900000000003  3.4912999999999998 28.7211999999999996
  5.7968400000000004  4.2152399999999997 29.7725000000000009
 11.7233000000000001  3.6683900000000000 25.6065000000000005
 12.9271999999999991  3.2545299999999999 24.6832999999999991
  7.4970400000000001  2.9319199999999999 37.5328999999999979
  6.0982599999999998  3.2232900000000000 36.8768999999999991
 14.0582999999999991  3.8145899999999999 21.9984999999999999
 14.2261000000000006  2.5237200000000000 20.9274999999999984
  8.2813400000000001  9.3180200000000006 38.3042999999999978
  8.6188000000000002  9.0410599999999999 39.6948999999999970
 11.4254999999999995  8.1912000000000003 19.3994999999999997
 10.6022999999999996  7.7140500000000003 18.4180999999999990
  5.3361799999999997  2.8666299999999998 16.1497999999999990
  4.1742299999999997  3.0674999999999999 15.1966000000000001
 -1.8152600000000001 12.5747000000000000 38.5101000000000013
 -1.9949900000000000 11.3889999999999993 39.5159000000000020
  5.6978400000000002 14.5587000000000000 23.8207999999999984
  6.2740000000000000 13.8440999999999992 25.0631999999999984
 10.2779000000000007  0.4070700000000000 17.0277999999999992
 11.2924000000000007  1.1430499999999999 17.9844000000000008
  4.2061900000000003  8.4000599999999999 20.7823999999999991
  4.9824099999999998  6.9587899999999996 21.3756999999999984
  3.5437900000000000  8.7379300000000004 26.3734999999999999
  2.8115800000000002  7.6205900000000000 25.7631000000000014
  5.1071299999999997  2.8288500000000001 34.1024000000000029
  4.7999299999999998  3.5261700000000000 32.6831000000000031
  4.0093300000000003  9.6621799999999993 17.5890999999999984
  4.2114200000000004  9.9966699999999999 19.0831000000000017
 -6.7006899999999998 12.6043000000000003 16.2073999999999998
 -5.4822300000000004 13.6456999999999997 16.4609999999999985
  6.7954600000000003  9.7995699999999992 14.3348999999999993
  6.6928799999999997  9.3589599999999997 15.6669999999999998
 -1.1667700000000001  8.1246600000000004 20.7314000000000007
 -0.1211680000000000  9.3017199999999995 20.7643999999999984
 -2.1070899999999999  5.3237699999999997 26.5895000000000010
 -0.7285720000000000  5.9253700000000000 26.2029999999999994
  1.8837200000000001  3.9091300000000002 39.8755000000000024
  0.7966270000000000  4.9457800000000001 39.6096999999999966
 -4.8247700000000000 12.9441000000000006 14.9414999999999996
 -3.1631399999999998 13.3218999999999994 15.1150000000000002
  0.9525830000000000 11.5402000000000005 25.7823999999999991
  0.9478480000000000 12.5966000000000005 24.5332000000000008
 -3.1932700000000001  9.7094699999999996 25.8994999999999997
 -3.7924000000000002  9.8776499999999992 27.2130000000000010
  5.7612100000000002  7.3000800000000003 31.9642000000000017
  7.1849200000000000  7.8540200000000002 32.2227999999999994
  4.2963399999999998  6.2047100000000004 38.2469999999999999
  3.8220299999999998  5.4108599999999996 39.6317999999999984
 10.9304000000000006  8.4933899999999998 23.0715000000000003
 11.1134000000000004  8.0929400000000005 24.6128000000000000
  8.3537599999999994 12.9390000000000001 28.1256999999999984
 -7.0189100000000000 12.9711999999999996 28.1362999999999985
  1.6265300000000000 14.5627999999999993 19.6408999999999985
  2.1840500000000000 13.8264999999999993 20.8153000000000006
  8.4465199999999996  1.3338699999999999 39.7325000000000017
  6.9345100000000004  1.2993300000000001 39.5238000000000014
 -0.6666670000000000  1.1903400000000000 30.4987999999999992
 14.8062000000000005  0.5800770000000000 31.1348999999999982
  6.7441000000000004  0.1242130000000000 22.1442000000000014
 -0.5407320000000000 13.8171999999999997 22.0572000000000017
  0.3189120000000000  5.1616900000000001 20.7864000000000004
 -0.3306630000000000  5.0844100000000001 19.4777999999999984
 -1.0598900000000000  1.9649099999999999 23.7236000000000011
 15.5557999999999996  1.9072899999999999 25.2678000000000011
 -0.9878230000000000  3.8189700000000002 16.5768999999999984
 -0.8501640000000000  3.1874500000000001 15.1843000000000004
  9.5362399999999994  6.3297699999999999 31.3956000000000017
  9.5406099999999991  4.9739599999999999 30.8538999999999994
  0.0868965000000000  1.5703800000000001 36.4926999999999992
  1.3794599999999999  1.2023200000000001 35.8245000000000005
 11.5294000000000008  5.5467100000000000 38.9789999999999992
 13.0658999999999992  5.0387000000000004 38.9714000000000027
 -0.9815030000000000  3.1922999999999999 26.7274999999999991
  0.4520560000000000  2.2314300000000000 26.3939999999999984
  7.7161200000000001  2.2519600000000000 29.6731000000000016
  7.9385399999999997  0.7056870000000000 30.2849000000000004
  0.0938003000000000  1.8329500000000001 28.6209999999999987
  1.2671100000000000  2.3895700000000000 29.4512000000000000
 15.6913000000000000  0.7503919999999999 39.3851000000000013
 -0.8052650000000000  2.2811300000000001 38.8656999999999968
  2.3748999999999998 12.6477000000000004 39.0632000000000019
  3.0357400000000001 13.9741000000000000 39.4185999999999979
 -6.2384399999999998 12.6378000000000004 32.6041999999999987
 -6.4534900000000004 12.3425999999999991 31.2117000000000004
 -1.9522400000000000  7.6311299999999997 24.7287999999999997
 -3.2069399999999999  8.2980800000000006 24.7502999999999993
 -3.5457900000000002 12.3764000000000003 36.0591999999999970
 -2.4465900000000000 13.4814000000000007 35.7717999999999989
 10.2104999999999997  6.3008699999999997 22.8693999999999988
  9.9702699999999993  4.8269500000000001 22.2104999999999997
  6.6528600000000004 10.2553999999999998 23.4400000000000013
  6.2538099999999996  8.8281299999999998 23.6755999999999993
 12.4085999999999999  5.7573400000000001 14.4532000000000007
 12.6629000000000005  6.0131399999999999 15.8078000000000003
  1.9958400000000001  4.2157600000000004 19.4298000000000002
  3.2428900000000001  4.4222099999999998 18.5093999999999994
 10.3618000000000006  8.7114600000000006 16.3267999999999986
  9.4955300000000005  7.4225099999999999 16.2340000000000018
 -3.5583900000000002  7.6039899999999996 28.2560000000000002
 -2.2716500000000002  7.1619999999999999 27.3778000000000006
 -1.3572299999999999  9.8847500000000004 24.5417999999999985
 -1.1188600000000000 11.1349999999999998 23.5292999999999992
 12.6449999999999996  4.1159200000000000 35.4067000000000007
 11.4298999999999999  4.4014400000000000 34.8100000000000023
  1.0128100000000000  3.4931399999999999 33.1610000000000014
 -0.4495390000000000  3.2163599999999999 32.4525999999999968
  8.2991499999999991  5.2998700000000003 35.5632000000000019
  8.4387600000000003  5.3904899999999998 37.0369000000000028
 10.1877999999999993  0.0022655100000000 34.2280999999999977
  0.5834040000000000 13.9665999999999997 33.2997999999999976
 -2.7818399999999999  5.1319800000000004 24.1402000000000001
 13.2772000000000006  5.9123500000000000 22.9312000000000005
  6.2456800000000001  9.3125499999999999 37.7323999999999984
  6.9986400000000000  9.6455199999999994 36.4866999999999990
  7.4992599999999996 10.4512000000000000 21.2254000000000005
  8.1399100000000004 10.6800999999999995 20.0071000000000012
 11.5304000000000002  1.2494400000000001 25.2015999999999991
 10.2242999999999995  0.2112920000000000 25.7632000000000012
  4.9749499999999998  7.5083500000000001 35.0452000000000012
  4.5341800000000001  6.4068100000000001 34.1621000000000024
 -2.5388099999999998 10.4699000000000009 31.4966000000000008
 -2.6518400000000000  9.3617000000000008 30.4222000000000001
 -1.2116800000000001 12.9088999999999992 25.2336999999999989
 -2.5038100000000001 13.6915999999999993 24.9345999999999997
  7.9981200000000001 12.9283999999999999 17.5353999999999992
  7.3041799999999997 11.8941999999999997 16.3858999999999995
  4.7531800000000004  3.2321100000000000 23.6642000000000010
  4.3820699999999997  1.7148800000000000 23.9423999999999992
 -3.4304199999999998  6.2822100000000001 17.8926000000000016
 12.0672999999999995  6.1920200000000003 18.3748000000000005
  0.2297520000000000  8.0379199999999997 32.7364000000000033
 -0.4103010000000000  8.1720100000000002 34.1706000000000003
  5.4822600000000001 13.7861999999999991 39.4838999999999984
  5.8314399999999997 14.4175000000000004 38.1178999999999988
  9.6978899999999992  2.7801600000000000 17.6969999999999992
  9.0848499999999994  4.1936799999999996 17.5228999999999999
  1.0912800000000000  0.1628420000000000 31.6084999999999994
 -6.3098299999999998 14.4276999999999997 30.3151000000000010
  1.8459600000000000  2.5618799999999999 24.5073000000000008
  2.5268099999999998  1.8089100000000000 25.7084000000000010
 14.1046999999999993  0.3205100000000000 20.7707000000000015
 15.4727999999999994  0.4513880000000000 21.6295999999999999
  0.2524890000000000  8.1799300000000006 14.5837000000000003
 -0.2623160000000000  9.6504300000000001 14.7531999999999996
 -3.0842999999999998 14.4466000000000001 28.3560000000000016
  5.6260899999999996  1.3879600000000001 29.2728999999999999
 -1.3326800000000001  4.7471300000000003 39.0146000000000015
 14.4544999999999995  3.9117799999999998 39.8828999999999994
 10.7457999999999991  9.6524900000000002 21.0625000000000000
  9.1875099999999996  9.5059299999999993 21.4635999999999996
  9.2439000000000000 10.7984000000000009 32.4613000000000014
  8.4529999999999994 10.1843000000000004 33.4217999999999975
  6.9119099999999998 12.0460999999999991 25.0725000000000016
  8.1206700000000005 11.2567000000000004 25.2737000000000016
 13.6696000000000009  3.6641699999999999 27.2136999999999993
 14.4339999999999993  3.7522600000000002 28.4958999999999989
 -7.6007400000000001 14.0203000000000007 25.1871000000000009
  7.9870200000000002 14.3210999999999995 24.3164000000000016
  4.1955299999999998 11.2524999999999995 21.5702999999999996
  4.5647700000000002 10.0356000000000005 22.4389000000000003
  4.2775200000000000  5.7178100000000001 31.4578999999999986
  3.2164999999999999  6.6620400000000002 32.1407999999999987
  5.3360799999999999 12.5635999999999992 35.8444999999999965
  6.2162899999999999 12.6233000000000004 36.9705999999999975
 -7.9367400000000004 13.9692000000000007 22.5820000000000007
  8.4539700000000000 12.8412000000000006 21.6859999999999999
  9.9491800000000001  4.8648300000000004 24.5900999999999996
 10.3332999999999995  5.6212099999999996 25.9640999999999984
  9.2202400000000004 10.4375000000000000 14.9954000000000001
 -6.4006200000000000 11.1760999999999999 14.5792999999999999
 11.8513000000000002  2.4209299999999998 32.6064000000000007
 12.0597999999999992  0.9634920000000000 32.3671999999999969
  1.5562000000000000  6.6525499999999997 26.9523000000000010
  2.0374599999999998  5.2147100000000002 26.7129000000000012
  4.9755300000000000  5.4787100000000004 28.4411999999999985
  5.7411899999999996  6.4870700000000001 29.3525999999999989
  7.8487499999999999 12.8535000000000004 39.4720000000000013
  8.2135300000000004 11.5028000000000006 39.3192999999999984
  4.8921400000000004 12.0779999999999994 15.3384999999999998
  5.8184899999999997 11.7405000000000008 14.2545000000000002
 -1.2334300000000000 11.5273000000000003 15.1687999999999992
 -2.1862100000000000 10.2837999999999994 15.3320000000000007
  3.7267399999999999 12.1957000000000004 26.7398999999999987
  3.5655199999999998 13.6484000000000005 26.5392000000000010
  6.7588400000000002  1.8027200000000001 14.8110999999999997
  7.6649700000000003  3.1712500000000001 14.7585999999999995
  0.2364370000000000  0.3811000000000000 18.2753000000000014
 15.6684000000000001  0.0653812000000000 18.8094999999999999
  4.6606300000000003  0.1356580000000000 25.4507000000000012
 -4.8303500000000001 13.9234000000000009 24.9506000000000014
 13.2973999999999997  0.3663910000000000 18.2302999999999997
 13.5916999999999994  1.9038600000000001 18.1203000000000003
  3.3022200000000002 11.8688000000000002 14.3771000000000004
  2.4733600000000000 11.8300000000000001 15.8171999999999997
  3.0091600000000001  1.6814700000000000 34.5660999999999987
  2.5762399999999999  3.2684400000000000 34.8496000000000024
 -2.0263900000000001  7.6550300000000000 36.1424000000000021
 -1.5080899999999999  6.5945000000000000 37.0846999999999980
 -5.4921699999999998 11.7423000000000002 24.0521999999999991
 -4.4658199999999999 11.4905000000000008 25.2378000000000000
 -5.0462699999999998 10.0477000000000007 38.6432000000000002
 10.3546999999999993 10.3927999999999994 38.1212999999999980
  3.5750400000000000 14.2234999999999996 22.1336000000000013
 11.8533000000000008  1.2522599999999999 21.7688999999999986
  5.2351700000000001  9.7060999999999993 35.0180999999999969
  3.6897799999999998  9.5845400000000005 35.3406999999999982
  9.2880000000000003  1.9335700000000000 32.6480000000000032
  8.7555300000000003  2.9855200000000002 33.6936000000000035
  7.2694599999999996  8.0989100000000001 21.7516999999999996
  8.7284299999999995  7.6158799999999998 21.5158999999999985
  7.0991999999999997  9.2047899999999991 27.0791000000000004
  7.4018400000000000  7.8253399999999997 27.8309999999999995
  1.0669700000000000  7.9783499999999998 18.2519999999999989
  2.0132400000000001  9.3699700000000004 18.1612000000000009
  7.0923400000000001  6.0737899999999998 21.6331999999999987
  6.1682699999999997  4.7008900000000002 21.4220000000000006
 -1.5306700000000000  3.3175300000000001 19.1248000000000005
 -0.3581110000000000  3.0231499999999998 18.1672000000000011
  7.8429000000000002  0.6855700000000000 23.8072000000000017
  7.6481300000000001  1.4558899999999999 25.2639999999999993
  9.4373000000000005 11.5884000000000000 26.7156999999999982
  9.5314800000000002 10.1837999999999997 26.0777999999999999
  4.3122100000000003  5.8779100000000000 17.0787000000000013
  4.0079599999999997  6.0692599999999999 18.4921000000000006
 12.4093000000000000  3.6880899999999999 19.8600999999999992
 12.4891000000000005  4.0389499999999998 18.4103999999999992
 13.4677000000000007  2.6701500000000000 16.0087000000000010
 13.8806999999999992  3.9169100000000001 15.6052000000000000
  6.6471900000000002 12.7639999999999993 31.4436000000000000
  5.4704300000000003 13.5653000000000006 31.8278999999999996
  8.7887400000000007  3.7133200000000000 39.0724000000000018
 10.0884999999999998  3.0597799999999999 39.6989999999999981
  2.1355000000000000  0.0346107000000000 39.3511000000000024
  1.3285499999999999  1.4861000000000000 39.1554000000000002
 -0.4254390000000000 11.1351999999999993 33.0011000000000010
 -1.5027200000000001 10.7133000000000003 33.8477999999999994
  4.4627900000000000  0.5401210000000000 33.7351999999999990
  3.3342399999999999  0.4725570000000000 32.6501000000000019
  3.2152699999999999 13.8711000000000002 30.5446999999999989
  3.1418900000000001 12.5498999999999992 31.3190999999999988
  7.3287199999999997  3.0579800000000001 17.0905999999999985
  6.4928600000000003  2.7269399999999999 18.1202000000000005
 14.8839000000000006  2.8907500000000002 30.2708000000000013
 13.8051999999999992  3.7994800000000000 30.7771000000000008
  8.4640799999999992  0.3593930000000000 28.0423000000000009
  0.1801490000000000 13.6402000000000001 27.2135999999999996
  0.1193630000000000  3.2473399999999999 22.2428999999999988
  0.5681720000000000  1.7978799999999999 21.9935000000000009
 -5.4391299999999996 11.8940999999999999 39.0955000000000013
 -4.4411300000000002 13.0435999999999996 39.4802000000000035
 -6.4421999999999997 13.1940000000000008 20.1453999999999986
 -6.0753800000000000 11.9839000000000002 19.4461000000000013
  6.7965999999999998  4.8009800000000000 25.0305999999999997
  6.4327399999999999  5.3003999999999998 23.5688999999999993
  6.9785500000000003  3.6523500000000002 26.0644999999999989
  8.3733900000000006  4.0095799999999997 26.4099000000000004
  2.4717600000000002  9.0260200000000008 15.3306000000000004
  3.9455200000000001  9.8585499999999993 15.0570000000000004
 -0.8694340000000000 14.2171000000000003 15.1051000000000002
 -1.6634500000000001 14.1023999999999994 16.4676000000000009
  3.2076099999999999 10.7982999999999993 37.5685000000000002
  3.8443600000000000  9.7761399999999998 38.2479999999999976
  1.0947899999999999 10.9733999999999998 38.7905000000000015
  0.0392678000000000 12.1448999999999998 38.7732999999999990
  0.5207720000000000 10.7730999999999995 35.3793999999999969
  0.6641400000000000 12.2140000000000004 34.8053000000000026
 15.4100999999999999  0.2481420000000000 27.3689000000000000
  6.3739400000000002 13.5414999999999992 27.7821999999999996
 -0.8369940000000000  4.8607399999999998 36.5394999999999968
  0.3656170000000000  4.3438600000000003 37.5534999999999997
 -4.7677399999999999 10.3938000000000006 18.5174999999999983
 -4.2740299999999998 10.1586999999999996 19.9890000000000008
  6.9272700000000000  7.1576700000000004 19.3314999999999984
  6.0779800000000002  6.3029599999999997 18.2712000000000003
 -1.4168799999999999  7.1234099999999998 18.1641000000000012
 -1.3525300000000000  5.7046999999999999 17.5811999999999991
  1.7688699999999999  2.7736900000000002 18.1609000000000016
  1.3874000000000000  2.1868400000000001 16.6250999999999998
  1.8470100000000000  5.1187300000000002 16.7837999999999994
  2.0583200000000001  6.6068499999999997 16.2625999999999991
  9.9221199999999996  3.8773499999999999 28.5504999999999995
 10.1000999999999994  2.4388999999999998 29.0960000000000001
 10.4911999999999992  7.7366099999999998 27.1509999999999998
  9.2794899999999991  7.8452000000000002 26.4505000000000017
  7.5551399999999997 11.4002999999999997 35.6097999999999999
  9.1151400000000002 11.2292000000000005 35.4286000000000030
  0.1784120000000000  0.7452820000000000 33.5035999999999987
  7.6609499999999997 14.3331999999999997 32.9774000000000029
 -3.2316300000000000  5.9455799999999996 20.7056000000000004
 -3.4226800000000002  7.4782599999999997 21.1148999999999987
 -7.9591200000000004 14.4065999999999992 15.4159000000000006
 16.1156000000000006  0.2972090000000000 14.5764999999999993
 11.3115000000000006  2.3993600000000002 15.1842000000000006
 10.0439000000000007  2.9645500000000000 15.5091000000000001
  0.1684170000000000 13.3744999999999994 30.5565999999999995
  1.3298300000000001 14.3539999999999992 30.9936000000000007
  1.4541299999999999  9.0110700000000001 39.0797999999999988
  1.0004599999999999  9.0216700000000003 37.6058000000000021
  9.8791700000000002  0.4161870000000000 37.8153000000000006
  1.9133800000000001 14.4925999999999995 36.4457999999999984
 -5.6456799999999996 11.8262999999999998 35.1460999999999970
 -5.4067400000000001 11.1867000000000001 36.4709999999999965
  6.3952400000000003  0.5165190000000000 32.5215999999999994
 -1.8040300000000000 13.6157000000000004 31.8329999999999984
  2.5378300000000000 13.3803000000000001 18.8643999999999998
  3.4822899999999999 12.1822999999999997 18.4156000000000013
 -1.4049799999999999 10.7013999999999996 36.8958000000000013
 -2.0949700000000000  9.5718499999999995 35.8038999999999987
  7.4127299999999998 11.2502999999999993 29.5644999999999989
  7.4144699999999997 10.6031999999999993 31.0033999999999992
  0.5873710000000000 10.8604000000000003 16.9487999999999985
  0.2223830000000000 12.2009000000000007 16.7386000000000017
  7.3478700000000003  4.7484000000000002 33.7586000000000013
  6.6679599999999999  6.0096499999999997 34.2918999999999983
  6.0752600000000001  5.9421600000000003 36.7807999999999993
  6.2134099999999997  7.4387400000000001 37.3554999999999993
 11.0442000000000000  8.1292500000000008 36.6689000000000007
 10.5054999999999996  8.5991300000000006 35.3472000000000008
  7.1100800000000000  1.4163600000000001 36.2006999999999977
  7.8970500000000001  0.4843060000000000 35.2897000000000034
  4.3191300000000004  4.7656000000000001 24.9420999999999999
  3.0361699999999998  5.5524399999999998 24.4569000000000010
  1.8497600000000001  3.8593500000000001 30.4995000000000012
  2.0058699999999998  4.4718200000000001 29.1324000000000005
 -0.6665970000000000 13.7462000000000000 18.7695000000000007
 -2.2169699999999999 14.1252999999999993 18.6938999999999993
  2.4402300000000001  7.7772500000000004 28.9996000000000009
  3.6059500000000000  8.7421500000000005 29.5677999999999983
  9.5836100000000002  0.7813270000000000 14.5618999999999996
  1.7193300000000000 13.9365000000000006 14.4365000000000006
 10.1842000000000006  6.8369400000000002 37.6961000000000013
  9.9110899999999997  7.6450600000000000 38.9151999999999987
  8.8383099999999999 11.0427999999999997 17.8166000000000011
  9.1241000000000003  9.5753599999999999 17.9487999999999985
 13.3976000000000006  1.4033300000000000 36.8789000000000016
 12.6081000000000003  0.4183040000000000 36.1225000000000023
 -3.4474999999999998  9.3367299999999993 22.4965000000000011
 -2.6049699999999998 10.4448000000000008 21.8545000000000016
  5.9268500000000000 11.3834000000000000 38.5932999999999993
  5.9844200000000001 10.6614000000000004 40.0788000000000011
  5.9961700000000002  8.2646599999999992 17.7093999999999987
  6.8759600000000001  9.5037199999999995 17.7927000000000000
 -3.4754900000000002  9.3496199999999998 33.7385000000000019
 -4.4047000000000001  8.6737800000000007 34.8686000000000007
  4.9246499999999997 10.3590000000000000 25.1284999999999989
  3.5172800000000000 10.8773000000000000 24.9006000000000007
 10.4626000000000001  0.1464060000000000 28.5336999999999996
  3.0337100000000001 13.6757000000000009 28.2846000000000011
  1.6951000000000001  1.3824900000000000 20.2359000000000009
  0.3739700000000000  0.5083180000000000 20.5442000000000000
 12.5002999999999993  2.2429399999999999 38.4018999999999977
 12.5800000000000001  1.9168400000000001 39.9234000000000009
  9.6744199999999996  3.9744299999999999 36.2083000000000013
  9.6620899999999992  2.3819100000000000 36.3168000000000006
  7.5665899999999997  5.6567800000000004 39.9714999999999989
  6.7379699999999998  5.8363100000000001 38.6413000000000011
 12.4573000000000000  5.8115100000000002 28.9168999999999983
 11.3939000000000004  6.4899100000000001 29.8327999999999989
 -4.4838399999999998 13.3703000000000003 19.6509999999999998
  4.0709900000000001  0.1146510000000000 20.4361999999999995
 -7.4157900000000003 13.7101000000000006 36.4254999999999995
  9.0287699999999997 12.8324999999999996 37.6569999999999965
  2.7033399999999999  2.1711800000000001 14.2769999999999992
  1.4360599999999999  1.3084199999999999 14.7428000000000008
  4.5405800000000003 10.7487999999999992 31.7781999999999982
  4.0622400000000001  9.9899199999999997 33.1253999999999991
  2.0638000000000001  8.0996500000000005 23.5831000000000017
  2.9371600000000000  7.5745300000000002 22.3046000000000006
 -1.7671500000000000  5.4930199999999996 31.2293999999999983
 -1.3358600000000000  6.5652400000000002 32.3134999999999977
 11.0884999999999998  9.3246800000000007 30.9905000000000008
  9.7399699999999996  8.6980100000000000 31.1983999999999995
  3.8539699999999999  4.4846300000000001 37.8887000000000000
  3.3530500000000001  3.3752399999999998 36.9583000000000013
 -1.6505799999999999  8.4740599999999997 28.8096999999999994
 -1.3627100000000001  7.6089000000000002 29.9904000000000011
 -3.4161100000000002  9.2581199999999999 13.9633000000000003
 -3.7842099999999999  7.8897300000000001 14.9024000000000001
  9.3253699999999995  7.0089399999999999 33.8960999999999970
 10.5083000000000002  7.4013099999999996 32.9979999999999976
  3.3069400000000000  0.4811980000000000 17.9307000000000016
  4.0521300000000000  1.0154799999999999 16.7702999999999989
  0.1549560000000000  7.9653400000000003 36.0373000000000019
  1.6941700000000000  7.5628599999999997 36.1019000000000005
  1.3182600000000000  9.4649800000000006 26.5832000000000015
  0.2174040000000000  9.3290699999999998 27.5889999999999986
  5.5894800000000000 10.3254000000000001 29.7092999999999989
  5.0955399999999997  9.2962299999999995 28.5269000000000013
  1.1302900000000000  4.8356000000000003 36.0206000000000017
  1.0262300000000000  5.8356000000000003 34.8076999999999970
  1.6556599999999999  0.4475040000000000 28.3854000000000006
  3.2311500000000000  0.0993905000000000 28.3673999999999999
  9.8236000000000008  6.2075399999999998 18.9355000000000011
  8.2766999999999999  5.9031000000000002 18.6814000000000000
  5.7163199999999996  6.7683200000000001 24.7389000000000010
  6.3568899999999999  7.9066999999999998 25.5742000000000012
  2.8973300000000002 12.0950000000000006 34.4686999999999983
  4.0878199999999998 12.8242999999999991 33.8100000000000023
  2.1132800000000000  8.5120699999999996 31.2083000000000013
  2.3850099999999999  9.2008299999999998 32.6557000000000031
  7.2483800000000000  7.8439500000000004 30.0090000000000003
  8.1996000000000002  6.7849599999999999 29.3885000000000005
 -1.6873800000000001 12.3801000000000005 29.0378000000000007
 -0.5082850000000000 11.3537999999999997 28.9655999999999985
  9.2827699999999993  6.6894999999999998 14.0696999999999992
  8.1995500000000003  6.3288300000000000 15.0343000000000000
  2.2989600000000001 10.1547000000000001 23.0101000000000013
  0.8262280000000000 10.1095000000000006 23.6876999999999995
 12.0471000000000004  3.8998900000000001 37.6535999999999973
 11.5092999999999996  2.7313999999999998 36.7481000000000009
 -4.1981000000000002 10.7850999999999999 29.9241999999999990
 -5.1944100000000004 10.7550000000000008 28.7062999999999988
 -1.8297099999999999  6.4008099999999999 14.6839999999999993
 -0.6357850000000000  5.5558600000000000 14.8505000000000003
 12.3300999999999998  3.8671099999999998 31.5391000000000012
 10.5183000000000000  2.4441199999999998 22.5275999999999996
 -1.3484300000000000  9.1384399999999992 18.2573000000000008
 -3.0006900000000001 13.1263000000000005 28.0281999999999982
 -0.1912940000000000  5.6491600000000002 22.3496999999999986
  3.7060000000000000  6.8031699999999997 15.2942999999999998
 14.5465999999999998  0.6636360000000000 15.1908999999999992
  3.1604199999999998 13.2609999999999992 23.2478000000000016
  6.8100699999999996  2.0453100000000002 19.9296000000000006
 -2.1544400000000001 12.2079000000000004 22.3251999999999988
  5.5694900000000001 12.3567999999999998 20.4477000000000011
 -0.8361580000000000  6.9078400000000002 38.6953999999999994
  3.9963500000000001  1.7870400000000000 20.7581999999999987
  5.1034600000000001  2.9681099999999998 26.7454999999999998
 -0.8399240000000000 11.2939000000000007 20.0688999999999993
 12.2457999999999991  6.2498399999999998 32.5938999999999979
  5.5440199999999997  0.5268250000000000 38.1636000000000024
 -3.8368099999999998 10.4438999999999993 17.0063999999999993
  5.7157999999999998  2.8319999999999999 39.7713999999999999
 -3.5325500000000001  9.2395200000000006 38.8971000000000018
  8.9019100000000009  3.3525700000000001 20.8199000000000005
  6.6254400000000002  5.6534100000000000 15.4229000000000003
 14.7425999999999995  3.2615099999999999 34.1837000000000018
  6.4852800000000004  3.5878000000000001 29.7022000000000013
 12.5157000000000007  3.0227800000000000 25.5372999999999983
  7.0761500000000002  3.3827699999999998 36.7849000000000004
 14.2270000000000003  3.4739000000000000 21.0198000000000000