 H  O Pt 
 1.0000000000000000
    16.8689999999999998    0.0000000000000000    0.0000000000000000
    -8.4344999999999999   14.6089825363999992    0.0000000000000000
     0.0000000000000000    0.0000000000000000   41.4780000000000015
   H   O  Pt
 460 230 216
Cartesian
 11.3171999999999997  8.8065599999999993 33.8134999999999977
 -4.4647100000000002  9.0584000000000007 32.6974999999999980
  3.4918000000000000 13.1329999999999991 27.8751999999999995
  2.9809500000000000 12.0952000000000002 28.8014000000000010
  9.2202999999999999  3.5045999999999999 21.4322000000000017
  8.8976000000000006  5.0281399999999996 21.3602999999999987
  9.9680499999999999  4.5547100000000000 35.0018000000000029
 10.3284000000000002  3.2404500000000001 35.7730000000000032
  2.3054800000000002  5.1564699999999997 32.5302999999999969
  1.9954099999999999  4.1025900000000002 33.6709999999999994
 14.2634000000000007  0.2699970000000000 17.8602999999999987
  5.8445099999999996 13.6803000000000008 17.0851000000000006
  9.5048399999999997  6.4742899999999999 18.3183000000000007
  8.7215399999999992  7.1301300000000003 19.5616999999999983
  1.0012300000000001  2.2556600000000002 32.3761999999999972
  2.4663300000000001  2.2224400000000002 32.6890000000000001
 10.9375000000000000  1.5323500000000001 25.4542000000000002
 10.7590000000000003  2.8471299999999999 26.3517000000000010
  0.5792430000000000  8.9682700000000004 36.0223999999999975
 -0.9666310000000000  9.2837999999999994 35.7432000000000016
  0.2279330000000000  8.4968000000000004 32.2319999999999993
  1.3037300000000001  9.6826899999999991 32.5491000000000028
 -0.0688423000000000 11.6582000000000008 39.4495999999999967
 -1.4998800000000001 11.1175999999999995 38.9639000000000024
 11.0405999999999995  2.7533699999999999 32.3475999999999999
  9.5613700000000001  2.0372200000000000 32.4737000000000009
 -2.3590599999999999 14.5228999999999999 19.3253999999999984
 -2.6208100000000001 13.9730000000000008 17.8357999999999990
  2.3902100000000002  2.7964899999999999 39.5593000000000004
  1.9920100000000001  2.9996000000000000 38.0424000000000007
 13.4184000000000001  4.0290900000000001 29.1697999999999986
 12.9505999999999997  2.5935400000000000 29.5356999999999985
 13.0798000000000005  1.3412100000000000 36.8881999999999977
 13.4527999999999999  1.2309099999999999 35.2849000000000004
 -3.7126800000000002  8.4628700000000006 25.5093999999999994
 11.9349000000000007  7.5294800000000004 25.5926000000000009
  8.9864300000000004  1.9970600000000001 39.7169000000000025
  9.8872300000000006  3.3717700000000002 39.3415000000000035
 11.7064000000000004  8.5227299999999993 38.2355999999999980
 10.7515999999999998  7.9164899999999996 39.3151000000000010
  9.5860900000000004 12.4553999999999991 29.8314999999999984
  8.5063600000000008 13.3915000000000006 30.4307000000000016
  7.2694299999999998  9.5787999999999993 13.8226999999999993
  7.8309600000000001 10.7441999999999993 14.8975000000000009
 15.0775000000000006  2.0920999999999998 27.6920000000000002
 -0.2474180000000000  2.3850500000000001 27.6424999999999983
  8.4174399999999991  1.8201700000000001 27.2321999999999989
  9.7090499999999995  1.1384700000000001 27.9673000000000016
 -2.0919900000000000  9.5354899999999994 32.4617999999999967
 -2.8206799999999999  9.2626200000000001 31.1236999999999995
 -2.3497499999999998  6.3587100000000003 28.9163999999999994
 -3.1984800000000000  6.3996300000000002 30.1020000000000003
  5.5073200000000000  9.9491099999999992 15.2695000000000007
  4.6294599999999999  8.7467299999999994 14.9303000000000008
 -1.5617099999999999  9.2993799999999993 23.4393999999999991
 -2.8374799999999998  9.8379899999999996 22.7148000000000003
 -3.6751999999999998 14.4382999999999999 15.2005999999999997
 -4.9618900000000004 13.4900000000000002 15.3986000000000001
 -0.9377430000000000 14.0098000000000003 15.6264000000000003
 -2.0238000000000000 12.8547999999999991 15.6111000000000004
  3.2180200000000001  0.6324060000000000 27.7412999999999990
 -4.7305700000000002 14.5840999999999994 29.0841999999999992
 -4.8753099999999998 12.0297999999999998 25.3649999999999984
 -5.4155899999999999 13.1247000000000007 24.3753999999999991
  4.6356099999999998  2.3253699999999999 31.6657000000000011
  3.9843099999999998  0.8437840000000000 31.8769999999999989
  4.1064200000000000  4.2820200000000002 37.4729999999999990
  4.7256600000000004  4.6044499999999999 36.1445000000000007
  0.6955150000000000  4.9798299999999998 14.1731999999999996
  0.3350080000000000  3.7846299999999999 15.2173999999999996
 11.9992000000000001  0.3979300000000000 21.4284999999999997
 10.7215000000000007  0.7126710000000001 20.6511999999999993
 13.9738000000000007  3.9866100000000002 14.5433000000000003
 -1.3661300000000001  4.6772900000000002 14.6275999999999993
  5.0075500000000002 12.1791999999999998 20.5640000000000001
  6.2461599999999997 13.2014999999999993 21.0250999999999983
  1.5469800000000000  8.6024700000000003 15.6681000000000008
  0.8148600000000000  7.6169000000000002 14.6417000000000002
 -4.5081699999999998 14.5137999999999998 36.7064000000000021
  4.9349999999999996  0.8809450000000000 37.5105000000000004
 -2.7560600000000002  6.2885499999999999 23.8455000000000013
 -2.5878399999999999  7.3826200000000002 22.6940999999999988
 -0.8952120000000000  6.3758400000000002 36.0478999999999985
 -2.3898299999999999  6.0620399999999997 36.0638000000000005
  6.3174799999999998  8.2859800000000003 26.1080000000000005
  6.0676800000000002  6.7233799999999997 26.3008999999999986
  7.8584300000000002 14.4428999999999998 17.3332000000000015
  0.8993060000000000  0.3747360000000000 17.5951999999999984
 -6.3306600000000000 14.2733000000000008 34.1259999999999977
 -6.9889200000000002 12.9624000000000006 34.5895999999999972
 -2.5228999999999999  8.6302500000000002 29.4098000000000006
 -3.6830699999999998  9.5564699999999991 29.1758999999999986
  8.0802200000000006 13.0166000000000004 38.9954999999999998
  6.7008099999999997 12.6218000000000004 38.0581999999999994
 10.8491999999999997 10.1220999999999997 15.0214999999999996
  9.3256899999999998  9.5338600000000007 14.7949000000000002
 13.3125999999999998  5.1650400000000003 21.8278999999999996
 12.3407999999999998  4.3596800000000000 20.7833000000000006
  5.0013399999999999  8.0723199999999995 37.4859999999999971
  5.3098599999999996  7.5057799999999997 38.8791999999999973
  5.1505900000000002 14.5684000000000005 28.5036999999999985
  5.5937599999999996 13.5161999999999995 27.2971000000000004
 -2.2045400000000002  7.0684800000000001 39.5829999999999984
 -1.2199700000000000  8.3479299999999999 39.4705999999999975
 12.4269999999999996  6.8786199999999997 39.6738000000000000
 11.8102000000000000  5.3686800000000003 39.8701000000000008
  4.7641900000000001 12.8585999999999991 33.2000000000000028
  3.9610500000000002 13.5050000000000008 32.2744000000000000
  3.8631600000000001  7.6774600000000000 26.4162999999999997
  2.2491900000000000  7.7013400000000001 26.8904999999999994
  9.2745599999999992  6.6069800000000001 15.2307000000000006
  8.0523000000000007  7.4426800000000002 14.6288999999999998
  4.6331600000000002 13.2350999999999992 22.1494000000000000
  3.1543800000000002 12.9741999999999997 22.6721000000000004
 -4.4059299999999997 14.2277000000000005 26.0117000000000012
  3.8899900000000001  1.0814600000000001 25.6050000000000004
 12.1865000000000006  7.5024300000000004 35.6653000000000020
 11.7920999999999996  6.0593100000000000 35.9200000000000017
 -3.6943100000000002 10.4494000000000007 17.8304000000000009
 -4.2519700000000000 11.4871999999999996 18.9091999999999985
  3.2870599999999999  5.2014500000000004 17.7950000000000017
  2.4418600000000001  4.0851699999999997 17.3679999999999986
  2.4427300000000001  8.8512400000000007 39.3293000000000035
  3.9484499999999998  9.0782100000000003 38.6621000000000024
 10.2085000000000008  4.6484500000000004 19.4945999999999984
 11.2208000000000006  3.7895300000000001 18.8799999999999990
 -4.3342000000000001 10.2363000000000000 35.3639000000000010
 -5.4970699999999999 10.0874000000000006 36.4876999999999967
  0.6257940000000000 11.5945000000000000 36.3400999999999996
  1.2815300000000001 12.8884000000000007 35.9031000000000020
  7.4126799999999999  4.8649300000000002 33.2120999999999995
  6.4867299999999997  3.8087399999999998 32.4099000000000004
 16.2012999999999998  0.4196340000000000 20.7575000000000003
 15.4726999999999997  0.3653270000000000 22.1914000000000016
 -8.3383099999999999 14.5940999999999992 25.4453999999999994
 15.7347999999999999  0.9010450000000000 25.1695999999999991
 11.9259000000000004  8.4491899999999998 21.7064999999999984
 11.9396000000000004  8.2414000000000005 23.2554000000000016
 12.2348999999999997  0.6374160000000000 29.9310000000000009
 13.7121999999999993  0.9314110000000000 30.6108000000000011
  4.6818499999999998 12.5914999999999999 37.7327000000000012
  5.0620300000000000 13.7565000000000008 36.7535000000000025
  1.6559800000000000 12.1219000000000001 16.7378999999999998
  0.7083670000000000 11.6809999999999992 17.9218000000000011
  4.4573600000000004  2.3117100000000002 34.1315000000000026
  5.0297700000000001  1.6820800000000000 35.5242000000000004
  9.9731500000000004  9.0601500000000001 22.4311000000000007
  9.0088299999999997 10.1250999999999998 21.9394999999999989
 -1.1621600000000001  4.8524000000000003 39.7272999999999996
 -1.4879700000000000  5.4371299999999998 38.3337999999999965
  4.4015800000000000  9.0937599999999996 19.7017999999999986
  3.8493900000000001  9.1489899999999995 21.2303999999999995
 10.6908999999999992 10.5078999999999994 39.1548000000000016
 -5.2648799999999998 11.6778999999999993 38.6383999999999972
  2.0103399999999998 14.2315000000000005 30.5023000000000017
 10.4764999999999997  1.1602100000000000 30.6139000000000010
  9.8055800000000009  8.4948300000000003 31.9264000000000010
  8.9052000000000007  8.4717900000000004 33.2909000000000006
  6.9620600000000001  2.5367199999999999 25.5045000000000002
  5.9264099999999997  1.6021500000000000 26.0547000000000004
  4.7628300000000001 11.3323000000000000 26.2030999999999992
  5.9398400000000002 12.1320999999999994 25.7864000000000004
  3.3778700000000002  5.4923400000000004 24.5198000000000000
  4.7874400000000001  5.5239099999999999 24.0259999999999998
 -5.1742900000000001 13.4525000000000006 20.6529999999999987
 -3.9037500000000001 13.6364000000000001 19.7687999999999988
  3.7048000000000001  5.7167100000000000 33.9485000000000028
  5.2492400000000004  5.3146599999999999 33.8098000000000027
 14.1907999999999994  3.6335899999999999 20.5498000000000012
 -1.7641899999999999  4.0882500000000004 19.2341000000000015
  8.6428899999999995  0.5994560000000000 23.8994999999999997
  7.7591999999999999  0.0845129000000000 24.9747999999999983
  3.8631500000000001  5.8392600000000003 39.2558999999999969
  5.4259800000000000  5.2393400000000003 39.3506000000000000
 -2.7448299999999999 12.5337999999999994 25.9503999999999984
 -1.2940400000000001 12.4841999999999995 26.6238999999999990
  5.4643199999999998  8.2573399999999992 18.0807000000000002
  6.4062099999999997  9.3566099999999999 18.4143000000000008
  7.6631999999999998  5.7681600000000000 28.7264000000000017
  7.0361599999999997  6.8275399999999999 29.5636000000000010
  4.0238300000000002  1.7334400000000001 20.5502000000000002
  2.6152000000000002  2.3106700000000000 20.4101999999999997
  0.7365990000000000 12.7281999999999993 23.1738000000000000
  1.1613700000000000 11.5353999999999992 22.2388000000000012
  8.0210600000000003  9.5824400000000001 16.8565000000000005
  8.5377200000000002  8.6102900000000009 18.0194000000000010
  3.7467600000000001  3.5583800000000001 14.2401000000000000
  4.0877100000000004  2.0717599999999998 14.5419000000000000
  7.5396599999999996  1.7583700000000000 16.8768999999999991
  8.0364299999999993  1.5607100000000000 18.3240000000000016
  9.4269599999999993 11.0359999999999996 37.2616000000000014
  8.3173899999999996 11.2782000000000000 36.2299999999999969
 13.9707000000000008  3.7048600000000000 38.3475999999999999
 13.2288999999999994  4.3291100000000000 37.2541999999999973
 -1.8049500000000001  9.5270700000000001 26.9866999999999990
 -1.3045000000000000  9.0949399999999994 25.5564000000000000
  2.4047800000000001  9.6844900000000003 36.9953000000000003
  2.2837299999999998  9.7151300000000003 35.4132000000000033
  8.5686900000000001  7.3832100000000001 39.5735999999999990
  9.5673800000000000  6.2021899999999999 39.6824999999999974
  8.6211500000000001 11.9163999999999994 20.9605999999999995
  7.5484400000000003 12.1105000000000000 22.1001000000000012
 12.8821999999999992  1.2728900000000001 14.9725000000000001
 14.1356999999999999  1.4242800000000000 15.7865000000000002
  0.0211382000000000  1.8024700000000000 14.3786000000000005
  1.1180399999999999  1.7094900000000000 15.5730000000000004
  5.2540899999999997  8.6788799999999995 32.1009000000000029
  4.4054200000000003  7.4242999999999997 32.6664000000000030
  1.1873400000000001 13.1080000000000005 32.4896000000000029
  0.0921111000000000 12.9278999999999993 31.4373000000000005
 -1.1107199999999999 10.5265000000000004 14.2301000000000002
 -0.0364312000000000 10.0561000000000007 15.2933000000000003
 11.1390999999999991  3.7928999999999999 28.1116999999999990
  9.6142199999999995  3.7056399999999998 27.9706000000000010
  1.9050400000000001 14.5120000000000005 16.2597999999999985
 11.1968999999999994  1.1649000000000000 16.5936999999999983
 -2.2691200000000000  8.9612999999999996 17.1230000000000011
 -2.1574000000000000  9.8378399999999999 15.9421999999999997
  8.7101199999999999 12.0322999999999993 26.0456000000000003
  8.5559600000000007 10.7787000000000006 25.0341999999999985
  1.6929000000000001  7.5906500000000001 29.0328000000000017
  0.5121220000000000  8.2138299999999997 28.1419999999999995
  8.1119900000000005  6.5132800000000000 37.4448000000000008
  6.8799299999999999  6.7550299999999996 36.4795999999999978
  2.3171599999999999 10.1265000000000001 17.4929999999999986
  3.1775500000000001  9.5379000000000005 16.4420000000000002
 10.7202000000000002  8.1484699999999997 19.4617000000000004
 -5.1143099999999997  9.2942199999999993 19.5454000000000008
  6.2698900000000002 11.5395000000000003 33.8682000000000016
  6.5529799999999998 11.1486999999999998 32.3295000000000030
  7.6383200000000002  0.5101780000000000 33.4887999999999977
  7.4700499999999996  2.1158600000000001 33.6516999999999982
 10.5594999999999999  4.3364099999999999 37.5994999999999990
 11.7714999999999996  3.7515499999999999 38.4628999999999976
  7.2362299999999999 13.3239000000000001 24.1460000000000008
  5.6798900000000003 13.4031000000000002 24.0371999999999986
 12.0585000000000004  5.6766500000000004 18.5045999999999999
 12.4435000000000002  7.1607799999999999 18.5149000000000008
  3.4875699999999998  6.3170700000000002 20.6685000000000016
  4.6059900000000003  5.4230200000000002 20.0213000000000001
  2.1570900000000002  1.3781000000000001 36.8305999999999969
  2.9066700000000001  2.6447099999999999 36.1154000000000011
 -3.7090000000000001 13.2364999999999995 37.9983999999999966
 -3.6453099999999998 13.0657999999999994 39.6223999999999990
 11.4320000000000004  5.6018400000000002 24.3912000000000013
 11.2966999999999995  5.1070099999999998 22.9663000000000004
 10.4009000000000000  1.7012300000000000 22.3338999999999999
  9.9508399999999995  2.3590800000000001 23.6570000000000000
  3.3644200000000000  8.2239900000000006 31.1178999999999988
  1.8719600000000001  8.5144500000000001 30.9694000000000003
  3.0071800000000000  5.6770699999999996 15.4162999999999997
  3.4653600000000000  6.3330299999999999 14.0899000000000001
 14.3439999999999994  1.3487100000000001 39.1700999999999979
  5.2043900000000001 14.5145999999999997 39.5457999999999998
 -5.1935399999999996 10.1136999999999997 27.6772999999999989
 11.0740999999999996  9.0294799999999995 28.7680000000000007
  2.0289899999999998 12.6721000000000004 38.9654999999999987
  0.8785750000000000 12.8094000000000001 38.0302000000000007
 -1.3101000000000000 12.3597000000000001 18.4024999999999999
 -0.7159370000000000 11.1934000000000005 19.4564999999999984
  6.0661699999999996  7.3413500000000003 23.0990000000000002
  5.3705600000000002  6.1647299999999996 22.2332999999999998
 -1.1907600000000000 13.3376000000000001 35.5031999999999996
 -2.3696100000000002 14.2718000000000007 35.5957999999999970
  2.9358599999999999  1.5246500000000001 17.8323999999999998
  2.8643900000000002  0.6632180000000000 16.5045000000000002
 -2.2107600000000001 11.4606999999999992 36.6154999999999973
 -3.0561099999999999 10.3292000000000002 37.2244999999999990
 12.5170999999999992  2.0900200000000000 17.9722000000000008
 12.0228999999999999  3.1556600000000001 16.8585999999999991
  5.9990699999999997  0.0220684000000000 22.9124000000000017
  5.1764200000000002  1.3449800000000001 23.2670999999999992
  1.8730599999999999  1.3534700000000000 29.9272999999999989
  0.6016049999999999  2.0522100000000001 29.5538999999999987
 -3.8743300000000001 12.9885999999999999 31.8294999999999995
 -5.2536199999999997 12.5995000000000008 31.2896000000000001
  0.1874570000000000 12.3507999999999996 15.0327000000000002
  0.8568980000000000 13.5373999999999999 14.2989999999999995
  8.0013100000000001  3.5399900000000000 23.4518999999999984
  8.7689299999999992  4.7471699999999997 24.0818000000000012
 -6.4084300000000001 14.4050999999999991 22.7875000000000014
 -7.0993000000000004 13.0197000000000003 22.4798000000000009
 -2.8218600000000000  6.3146100000000001 32.3079999999999998
 13.0859000000000005  5.0469600000000003 31.9795000000000016
 13.0534999999999997  3.4329900000000002 23.2011000000000003
 12.2493999999999996  3.0133399999999999 24.5044000000000004
  1.4711900000000000  6.4676400000000003 23.5666000000000011
  2.1231800000000001  7.0804099999999996 24.9792999999999985
 -3.5712299999999999 12.5862999999999996 23.4349999999999987
 -3.6270300000000000 12.7172999999999998 21.8841000000000001
 -6.0289599999999997 10.6155000000000008 31.5575000000000010
 -5.7198700000000002 10.7980000000000000 30.0158999999999985
  0.3943330000000000  9.9410900000000009 20.6987999999999985
 -0.6170420000000000 10.2155000000000005 21.7698999999999998
  6.0337100000000001  4.6804100000000002 26.7148000000000003
  7.0207499999999996  4.7439999999999998 25.4792999999999985
  6.3502599999999996  9.8338999999999999 30.7536999999999985
  7.3388099999999996  9.1071100000000005 31.6525999999999996
  0.9601590000000000  1.5084900000000001 23.7566999999999986
  1.0293399999999999  2.3197600000000000 22.4089999999999989
  2.8358900000000000 10.3900000000000006 30.3856999999999999
  1.8958400000000000 11.5637000000000008 30.9268000000000001
 -0.2103060000000000  3.0072899999999998 20.5680000000000014
  0.8222000000000000  4.1166999999999998 21.0526000000000018
  6.4944499999999996  2.3338399999999999 19.5771000000000015
  6.5806500000000003  1.5181000000000000 21.0216999999999992
  5.7119400000000002  2.5208100000000000 38.7807999999999993
  4.5741699999999996  1.6673600000000000 39.5947000000000031
  8.3831500000000005  1.3846000000000001 29.6290000000000013
  7.8317300000000003  1.3806200000000000 31.0987000000000009
 -3.2925499999999999  6.5307599999999999 14.8596000000000004
 -3.6809900000000000  8.0740999999999996 15.0075000000000003
  4.1322799999999997  3.1569900000000000 24.4163999999999994
  3.1295799999999998  2.2485300000000001 23.7178000000000004
 14.0298999999999996  2.3119499999999999 25.4025999999999996
 13.6989000000000001  1.1890300000000000 26.4030999999999985
  7.3863799999999999 12.9534000000000002 14.7720000000000002
  8.6142599999999998 12.5599000000000007 15.6354000000000006
  0.9575890000000000  5.0337300000000003 25.3516000000000012
 -0.6156850000000000  4.7069599999999996 25.3066999999999993
  6.8162000000000003  9.6192100000000007 39.1711999999999989
  7.4221500000000002 10.9370999999999992 39.2516999999999996
 -6.6303799999999997 13.8926999999999996 37.4617999999999967
 -6.6607399999999997 14.0169999999999995 35.8489000000000004
  0.5351780000000000 10.5768000000000004 25.5248999999999988
  0.4759820000000000 10.7576999999999998 23.9967000000000006
 10.2431999999999999  1.8205400000000000 15.0013000000000005
  9.1903900000000007  3.0457000000000001 14.5852000000000004
  3.8043999999999998 12.4054000000000002 39.7528999999999968
  3.3919400000000000 11.0013000000000005 39.0711999999999975
  0.9059739999999999  6.5860000000000003 39.2948999999999984
  1.4808100000000000  5.2728200000000003 39.0067000000000021
 12.8546999999999993  2.9133300000000002 33.4209999999999994
 11.7967999999999993  3.8583400000000001 34.2021000000000015
 -1.8630199999999999  5.0618400000000001 16.9681999999999995
 -2.7431399999999999  5.8806000000000003 17.8710999999999984
  3.8316100000000000 13.2917000000000005 14.7311999999999994
  3.8293699999999999 11.7904000000000000 14.4680999999999997
 -4.2948800000000000 11.1598000000000006 15.8249999999999993
 -4.3593900000000003 11.3794000000000004 14.2683999999999997
 -0.3701270000000000  5.8321399999999999 31.8064000000000000
 -0.5413230000000000  5.4009200000000002 30.2638999999999996
 10.7574000000000005  7.9141800000000000 15.2111999999999998
 11.3849000000000000  7.1883800000000004 16.4109000000000016
  7.1479299999999997  3.9791699999999999 37.7691000000000017
  7.7139100000000003  3.7863899999999999 39.1632999999999996
  0.0595847000000000 14.1917000000000009 20.1346999999999987
  1.1954899999999999 13.7791999999999994 19.1955999999999989
 14.7370999999999999  1.8547899999999999 33.3834000000000017
 14.9956999999999994  2.6108400000000000 34.7490999999999985
  4.2147899999999998 10.3579000000000008 23.4514999999999993
  5.3637600000000001 10.7253000000000007 22.4802999999999997
  0.2738340000000000 10.6428999999999991 28.2387000000000015
 -1.0629599999999999 10.0764999999999993 28.8045000000000009
 11.7689000000000004  0.8984640000000000 38.5418999999999983
 10.3775999999999993  0.2286100000000000 38.7237000000000009
 -6.9252599999999997 12.9682999999999993 17.2917999999999985
 -6.2822300000000002 11.5508000000000006 17.5371999999999986
  7.9794900000000002  2.5062099999999998 35.9104000000000028
  6.8144200000000001  3.2471700000000001 35.1948999999999970
  7.9735199999999997  4.9652300000000000 15.2147000000000006
  7.4906199999999998  3.9582600000000001 14.0511999999999997
  7.7577999999999996  8.9700399999999991 23.9524000000000008
  6.2309099999999997  9.2714099999999995 24.0066999999999986
 -0.4045500000000000  2.6943800000000002 39.1437999999999988
 -1.1716899999999999  2.4721199999999999 37.7993999999999986
 -0.3745910000000000 14.3386999999999993 39.0369000000000028
  6.8813100000000000  0.8056800000000000 38.6587000000000032
  2.0121000000000002  3.0346199999999999 27.3956000000000017
  0.9175700000000000  3.1494000000000000 26.3238999999999983
 12.5327999999999999  6.6076699999999997 27.7271000000000001
 11.3377999999999997  5.8956200000000001 27.3558999999999983
  6.4297599999999999  8.2657799999999995 28.1494999999999997
  7.0882399999999999  9.4737500000000008 28.9326000000000008
  6.7842799999999999  3.4063800000000000 16.0104000000000006
  5.3103699999999998  2.8692500000000001 15.9572000000000003
 10.0414999999999992  1.5415200000000000 36.8286000000000016
  9.8765000000000001  0.8999120000000000 35.3579999999999970
  3.0880600000000000 10.9619999999999997 33.5168999999999997
  3.3021300000000000  9.2642399999999991 33.2550000000000026
 13.9327000000000005  4.5624200000000004 25.1062000000000012
 -2.6348600000000002  5.6513000000000000 26.1651999999999987
  1.3472400000000000  5.1876600000000002 30.8507999999999996
  2.4947599999999999  6.1959400000000002 30.7189000000000014
 -0.9140890000000000  4.0829800000000001 36.0600000000000023
  0.1000580000000000  2.8817499999999998 36.0553999999999988
  8.4732599999999998  7.9229000000000003 21.5095999999999989
  7.2487000000000004  7.1512700000000002 21.3633999999999986
 -1.8016200000000000 11.6783000000000001 30.6187000000000005
 -2.0226899999999999 13.1987000000000005 30.1504000000000012
  2.5304199999999999 10.9474000000000000 24.6947000000000010
  3.3851100000000001  9.8101400000000005 25.4048000000000016
 -0.0911945000000000  5.8958000000000004 28.1182000000000016
 -0.8715410000000000  4.4648399999999997 28.1482999999999990
 -1.6420300000000001  3.3306499999999999 31.6691000000000003
 15.5785000000000000  1.8269400000000000 31.1885000000000012
  1.3140000000000001 12.3999000000000006 27.0376000000000012
  0.7724940000000000 13.1278000000000006 25.6966999999999999
  8.9492700000000003  5.5765399999999996 30.3187999999999995
 10.2990999999999993  5.0396599999999996 29.9049000000000014
 -0.2215380000000000  7.8269399999999996 34.1989000000000019
  0.5287809999999999  6.6425099999999997 33.7158999999999978
  8.7328299999999999 13.4878999999999998 27.9171000000000014
 -7.1951599999999996 14.4061000000000003 27.2740000000000009
 11.1646999999999998  4.1391700000000000 14.3927999999999994
 11.4849999999999994  5.7562300000000004 14.6013000000000002
  3.6847799999999999 10.7726000000000006 19.7345000000000006
  2.9510100000000001 11.9285999999999994 18.9242999999999988
  0.1978260000000000  8.1726899999999993 19.3024999999999984
  1.7592099999999999  8.2900299999999998 19.6484999999999985
 -0.8304030000000000  5.7050500000000000 21.7271000000000001
  0.0854724000000000  6.9322299999999997 21.2602000000000011
  4.9314000000000000 11.8971999999999998 18.2533999999999992
  4.8264300000000002 11.7620000000000005 16.7317999999999998
  1.8828499999999999  6.7131699999999999 37.3654000000000011
  2.3724599999999998  5.8967099999999997 36.1377999999999986
 13.1026000000000007  1.0313099999999999 19.7301000000000002
 14.2972999999999999  1.8995000000000000 19.3890999999999991
  6.8245100000000001  6.9004500000000002 16.4266000000000005
  5.3781200000000000  6.5457200000000002 16.0320000000000000
  9.1057100000000002  9.4953099999999999 35.2822000000000031
  8.5980299999999996  8.0297300000000007 35.3911999999999978
  5.6257900000000003  5.4426600000000001 18.1246000000000009
  5.9201899999999998  3.9086300000000000 17.8680999999999983
  3.6904800000000000 14.3835999999999995 26.0187999999999988
  3.4346399999999999 14.3813999999999993 24.4207999999999998
  9.6363900000000005  4.8988800000000001 32.5951000000000022
  9.4776000000000007  6.3760599999999998 32.9748999999999981
  8.4820899999999995 14.0861999999999998 32.6109000000000009
  6.9915599999999998 13.5277999999999992 32.3706000000000031
 -0.1084940000000000  9.5651700000000002 38.8785999999999987
 -0.4717880000000000  8.5575100000000006 37.7117999999999967
  6.3310800000000000  3.0428000000000002 29.9412999999999982
  5.9478000000000000  4.3620799999999997 30.1884000000000015
  2.8158500000000002  4.7313999999999998 28.9908000000000001
  4.1056999999999997  3.7592599999999998 28.9783000000000008
  0.7560540000000000  0.2909870000000000 39.2843000000000018
 -6.6012100000000000 13.9047999999999998 39.6884999999999977
 10.4803999999999995 10.8257999999999992 25.9373000000000005
 -5.3262900000000002  9.6683500000000002 25.4676000000000009
  7.5118900000000002 11.7215000000000007 29.1526999999999994
  6.3857200000000001 11.2765000000000004 28.2205000000000013
  9.3229600000000001  7.8502000000000001 29.0031999999999996
 10.3543000000000003  6.8876299999999997 29.5594999999999999
  5.4326100000000004 11.2653999999999996 36.1002999999999972
  5.5485899999999999  9.8844600000000007 35.5020000000000024
  4.6243400000000001  7.3876499999999998 35.3316999999999979
  3.4953500000000002  7.6828599999999998 36.2229000000000028
  8.8685399999999994 10.6881000000000004 18.6788999999999987
  8.7958599999999993 12.1207999999999991 18.8744000000000014
  8.8814200000000003  3.7252100000000001 17.3228000000000009
  8.0919699999999999  4.3753299999999999 18.4192000000000000
 -4.0212199999999996 12.3221000000000007 34.0063999999999993
 -2.6419999999999999 12.2071000000000005 34.6520000000000010
  3.2114799999999999 14.4728999999999992 35.6728000000000023
  2.9486599999999998 13.6992999999999991 34.3892999999999986
 -2.5191800000000000 14.1415000000000006 28.2073000000000000
  6.2720000000000002  0.4425620000000000 29.3832999999999984
 -0.1452720000000000  8.0723500000000001 16.8627000000000002
 -0.7616140000000000  6.9384899999999998 17.7761999999999993
 11.4285999999999994  9.2537900000000004 32.9891999999999967
  2.8327599999999999 12.3597000000000001 27.8763000000000005
  8.7750199999999996  4.1690300000000002 20.9881999999999991
 10.5580999999999996  4.2682500000000001 35.7180999999999997
  2.1528999999999998  5.1314799999999998 33.5153000000000034
  6.3324400000000001 14.5356000000000005 17.0158999999999985
  9.2473299999999998  7.3274900000000001 18.7297000000000011
  1.6160300000000001  2.4018299999999999 33.1233000000000004
 10.8329000000000004  2.5352100000000002 25.4111000000000011
 -0.3692690000000000  8.5200499999999995 35.8960000000000008
  0.6115080000000001  9.3654600000000006 31.8786999999999985
 -0.7375480000000000 10.9408999999999992 39.5628000000000029
 10.2866999999999997  2.3841800000000002 31.8485000000000014
 -2.3292799999999998 13.7501999999999995 18.7586000000000013
  1.9033100000000001  3.4041500000000000 38.9564000000000021
 12.6432000000000002  3.4724400000000002 29.3726999999999983
 13.1158000000000001  0.7474000000000000 36.1096000000000004
 -4.5415999999999999  8.2108100000000004 25.0500000000000007
  9.0295299999999994  3.0281400000000001 39.7926000000000002
 11.7018000000000004  8.2301300000000008 39.1869999999999976
  8.6792899999999999 12.8926999999999996 29.6093000000000011
  7.6266800000000003  9.7191600000000005 14.8521999999999998
 -1.0247100000000000  2.3262700000000001 28.2508000000000017
  9.0610599999999994  1.8683099999999999 27.9857000000000014
 -2.7191999999999998  8.8955800000000007 32.0837999999999965
 -3.1359400000000002  6.8951599999999997 29.2312000000000012
  4.5162500000000003  9.7253699999999998 15.1146999999999991