 H  O Pt 
 1.0000000000000000
    16.8689999999999998    0.0000000000000000    0.0000000000000000
    -8.4344999999999999   14.6089825363999992    0.0000000000000000
     0.0000000000000000    0.0000000000000000   41.4780000000000015
   H   O  Pt
 460 230 216
Cartesian
 10.5761000000000003  7.5328499999999998 32.9254000000000033
  9.9357299999999995  7.8752000000000004 31.6260000000000012
  1.0525400000000000  4.8812199999999999 19.7636000000000003
  0.7037790000000000  3.6276700000000002 18.7658999999999985
  9.6632300000000004 10.8507999999999996 21.8432999999999993
 10.4688999999999997 11.0913000000000004 23.0880000000000010
 12.6417999999999999  5.5700799999999999 38.3489000000000004
 -3.3277600000000001  5.8499299999999996 37.0724999999999980
  0.6076880000000000  5.3302500000000004 33.5379000000000005
  0.7087869999999999  4.1165300000000000 34.3742999999999981
  4.8448099999999998  5.3812699999999998 15.9276000000000000
  4.8039600000000000  4.7735900000000004 17.4939999999999998
 11.2750000000000004  4.8024199999999997 17.4725999999999999
 12.5989000000000004  4.5149900000000001 16.6803999999999988
 11.5789000000000009  4.9858200000000004 32.4791000000000025
 12.4718999999999998  4.0824400000000001 33.6691000000000003
  1.5788700000000000 11.1729000000000003 26.5788000000000011
  0.5635100000000000 12.3112999999999992 27.0808000000000000
  8.5718599999999991 10.2697000000000003 31.0401999999999987
  8.3386499999999995 10.4143000000000008 32.4594000000000023
  6.9473399999999996  0.2925590000000000 33.8588000000000022
  5.8386199999999997  0.2901020000000000 32.7501000000000033
  6.6562299999999999 10.9013000000000009 27.1490000000000009
  5.7390400000000001 10.0749999999999993 28.0707999999999984
  9.7514199999999995  3.0041799999999999 31.4929999999999986
 10.1654000000000000  2.8923399999999999 30.0957000000000008
 -4.5131899999999998 10.2919999999999998 18.0795999999999992
 -3.4026000000000001  9.1395599999999995 18.1326000000000001
  9.6115300000000001 12.6841000000000008 39.2957999999999998
 -6.8771300000000002 13.9847000000000001 39.7113000000000014
 -0.8734060000000000 12.2568000000000001 31.3693999999999988
 -1.8655100000000000 12.8896999999999995 30.3176999999999985
  0.9371760000000000  4.0370699999999999 31.2235000000000014
 -0.4594770000000000  4.6360299999999999 31.1609000000000016
 10.8577999999999992  9.6747200000000007 27.3123000000000005
 -5.3979799999999996  9.8846399999999992 28.6590999999999987
 -1.5365500000000001  4.6710300000000000 32.9515999999999991
 13.8697999999999997  4.9316800000000001 32.3245999999999967
  5.5847100000000003 13.0175999999999998 35.8665999999999983
  6.2836699999999999 13.0876999999999999 37.2736999999999981
  5.3403499999999999 11.3114000000000008 24.4066000000000010
  3.8410799999999998 11.8356999999999992 24.3984999999999985
  4.7374599999999996  7.8252699999999997 17.7474999999999987
  5.3996700000000004  7.5803200000000004 19.1493000000000002
 -0.5637700000000000  2.3261500000000002 21.6767000000000003
 14.9740000000000002  2.5883600000000002 22.3561000000000014
 -0.1580160000000000  7.7397200000000002 30.7347000000000001
  0.3604540000000000  6.3015100000000004 30.5531000000000006
  1.4449300000000000 11.9149999999999991 17.4379999999999988
  2.3291100000000000 11.5457999999999998 18.7014999999999993
  7.8774600000000001  8.3424099999999992 33.2218000000000018
  7.3909099999999999  9.3503299999999996 34.2901000000000025
 -0.2126050000000000  5.1417999999999999 16.9818999999999996
 -1.2148399999999999  4.4713000000000003 17.9072999999999993
  7.6616299999999997 12.7164999999999999 21.8332000000000015
  8.1096199999999996 11.7563999999999993 22.8394000000000013
  7.6526300000000003 12.2330000000000005 16.4788999999999994
  7.2438399999999996 11.3960000000000008 15.3912999999999993
  1.9807500000000000 11.9969000000000001 14.6257000000000001
  2.7477299999999998 12.4728999999999992 15.9894999999999996
  5.9855000000000000 13.6247000000000007 29.9779000000000018
  5.5877900000000000 12.0816999999999997 29.2256999999999998
 11.1806000000000001  1.0735200000000000 18.7788000000000004
 12.0134000000000007  1.9424600000000001 19.8083999999999989
 11.9354999999999993  3.8216899999999998 27.0858999999999988
 11.4170999999999996  2.6415799999999998 28.0448999999999984
 10.9589999999999996  9.2736300000000007 33.9457999999999984
 11.0676000000000005  9.6858100000000000 35.4562000000000026
  8.2879100000000001  0.2649380000000000 21.0304000000000002
  7.3188100000000000  1.2604400000000000 21.6772999999999989
  3.7150699999999999  1.1429000000000000 23.0562000000000005
 -4.3795099999999998 14.5434999999999999 22.3170999999999999
 14.4185999999999996  2.2935800000000000 18.5292999999999992
 14.6523000000000003  3.4465300000000001 19.3490000000000002
  2.0109100000000000  9.3892699999999998 18.8963000000000001
  0.7583750000000000  8.5034500000000008 18.3423000000000016
  1.9969300000000001  2.7077200000000001 15.2593999999999994
  3.2767100000000000  2.6419700000000002 14.5198000000000000
 -1.4788300000000001  7.6120799999999997 39.9450000000000003
 -2.3632900000000001  7.2775200000000000 38.6411000000000016
  3.3755500000000001 13.5447000000000006 22.9739000000000004
  3.9866600000000001 12.9335000000000004 21.6673000000000009
 11.9360999999999997  0.8172980000000000 33.7134000000000000
  4.2008900000000002 14.1349999999999998 33.7340000000000018
  6.4108000000000001  9.8879199999999994 20.4715999999999987
  7.4299799999999996 10.5800999999999998 21.3141999999999996
  3.0478399999999999  9.2972999999999999 25.7846000000000011
  1.9323900000000001  9.9687599999999996 24.8384999999999998
 -0.3079750000000000 13.4894999999999996 39.2552000000000021
  0.3276620000000000 12.7950999999999997 37.8738999999999990
 -2.1167799999999999 14.0601000000000003 37.6505000000000010
  5.7249699999999999  0.7700100000000000 37.0964000000000027
  2.8207700000000000 12.8765000000000001 29.2954000000000008
  1.3391000000000000 13.2721000000000000 29.3384000000000000
  2.5081699999999998  2.8565700000000001 19.8872999999999998
  3.8970600000000002  2.3307000000000002 19.2023000000000010
 -1.5142199999999999 14.6420999999999992 14.9047000000000001
  6.0750299999999999  1.3384700000000000 15.0947999999999993
  4.9885000000000002  8.3596400000000006 39.3714000000000013
  6.0926000000000000  7.8016300000000003 38.3449999999999989
  0.5053420000000000  7.1486900000000002 20.5165000000000006
  2.0407700000000002  7.4332799999999999 20.1652999999999984
 -5.2953000000000001 11.9451000000000001 37.4403999999999968
 -4.3343299999999996 10.7396999999999991 37.7308999999999983
  1.8539399999999999  9.1416199999999996 34.9572000000000003
  2.9651399999999999  7.9735600000000000 35.0155999999999992
  8.0205099999999998  4.5224299999999999 24.9426999999999985
  6.6892399999999999  5.3303300000000000 25.2513000000000005
 -3.9017200000000001  9.1063200000000002 30.1847999999999992
 -2.8283700000000001  9.8305199999999999 29.1582000000000008
  6.3402000000000003  7.2459600000000002 15.2439000000000000
  7.5646800000000001  6.4357199999999999 15.0969999999999995
  7.8754099999999996  4.5606900000000001 29.3297999999999988
  8.0269399999999997  5.7562100000000003 28.2408999999999999
 -0.4780760000000000  1.6544600000000000 28.2861000000000011
  0.0914485000000000  0.1890690000000000 28.2940000000000005
 -3.3218100000000002 12.7972000000000001 34.6334000000000017
 -2.1272000000000002 13.2477999999999998 35.2182999999999993
  1.5970000000000000  0.3368120000000000 17.1710999999999991
  2.9807100000000002  0.6152300000000001 17.4328000000000003
  2.3624499999999999  7.1254400000000002 24.5698000000000008
  2.8030599999999999  5.9842700000000004 23.5881000000000007
 -0.9761330000000000  4.4112600000000004 39.7894000000000005
 -1.9908500000000000  4.6657500000000001 38.4889999999999972
  8.5747000000000000  6.1257299999999999 26.2110999999999983
  9.8837899999999994  6.3313699999999997 26.8946000000000005
  7.3859000000000004  5.2496499999999999 32.0735000000000028
  7.1651499999999997  5.9781800000000000 30.5543000000000013
 -1.9036700000000000  6.0407099999999998 28.0527000000000015
 -0.6949860000000000  5.5937500000000000 28.9847999999999999
  4.9094899999999999  3.8710200000000001 32.0647000000000020
  4.0248999999999997  5.0390800000000002 31.7286000000000001
  0.7835820000000000 12.3614999999999995 21.7360000000000007
  1.5483700000000000 11.1335999999999995 22.0045999999999999
 -0.4911440000000000 13.8602000000000007 24.6281999999999996
  0.5358840000000000 13.1887000000000008 23.6341999999999999
  7.5852300000000001  6.2988799999999996 23.3006999999999991
  8.6820500000000003  7.0440899999999997 22.5402999999999984
  6.4650400000000001 13.3552999999999997 23.5599999999999987
 14.1083999999999996  0.0693092000000000 24.0425000000000004
 -1.7169300000000001 10.9658999999999995 39.1338000000000008
 -2.2217099999999999  9.4004499999999993 38.6833000000000027
 10.3023000000000007 10.2075999999999993 20.0796999999999990
  8.8075399999999995 10.4553999999999991 20.3936999999999991
  5.5458400000000001  7.0415599999999996 35.9673999999999978
  4.6999100000000000  7.1653700000000002 34.5902000000000029
  7.6284200000000002  9.1324600000000000 24.1647999999999996
  7.3895200000000001  8.5158199999999997 25.5369999999999990
  5.5848699999999996  2.1661199999999998 34.0782999999999987
  4.1837900000000001  2.2726700000000002 34.8096999999999994
  2.5152100000000002  0.1054310000000000 27.0814999999999984
 -6.3480100000000004 13.4692000000000007 27.6753999999999998
  8.6526200000000006  9.5561199999999999 37.1799999999999997
  9.8349799999999998  8.4924599999999995 37.4318999999999988
  4.6995800000000001  0.8072660000000000 25.2796999999999983
  5.4734800000000003  1.1164600000000000 26.5930000000000000
  8.4900800000000007  0.4817060000000000 35.8025000000000020
  8.8666599999999995  1.5307100000000000 34.6837999999999980
  0.8308710000000000  3.4882000000000000 27.2044999999999995
  2.2627299999999999  3.2251900000000000 27.2595999999999989
 13.3391999999999999  2.4622899999999999 35.4545999999999992
 12.2707999999999995  3.5090499999999998 35.9495999999999967
  1.0880099999999999  9.9162499999999998 14.8940000000000001
  1.5081300000000000  9.2319999999999993 16.3431999999999995
 -0.9572470000000000  6.7226699999999999 18.8185000000000002
 -1.6550199999999999  7.7781900000000004 19.5977999999999994
  9.3935300000000002  8.9938800000000008 29.0975999999999999
  7.9790400000000004  8.7857599999999998 28.8542999999999985
  9.2233999999999998 12.5275999999999996 29.1435999999999993
  9.3386200000000006 11.6279000000000003 27.8632999999999988
  4.9163899999999998  1.4135700000000000 17.0558000000000014
  4.9525300000000003  0.7617699999999999 18.4651999999999994
  4.2473999999999998 11.0731000000000002 37.7858000000000018
  4.5291800000000002 11.0551999999999992 39.3678999999999988
 11.3285000000000000  3.6798500000000001 20.5941000000000010
 12.5809999999999995  4.3983900000000000 20.5159999999999982
  7.4432799999999997  2.4574199999999999 18.6991000000000014
  7.2805799999999996  1.0398099999999999 19.5030000000000001
 -7.7471600000000000 13.6735000000000007 23.2732999999999990
  8.2115500000000008 13.6594999999999995 24.3826999999999998
 -0.2002360000000000  5.8239799999999997 24.4234000000000009
  0.0731851000000000  6.7288600000000001 25.6295000000000002
  7.4366099999999999  2.4017499999999998 36.0818000000000012
  6.2424400000000002  3.5341499999999999 36.0938000000000017
 -4.4459600000000004  9.9619999999999997 24.7219000000000015
 -2.9025200000000000  9.9936799999999995 24.9366999999999983
  3.6025700000000001  8.1236200000000007 22.9840000000000018
  4.4527700000000001  9.3579100000000004 23.0191000000000017
  2.2370000000000001  4.8094799999999998 14.9911999999999992
  2.7181999999999999  5.9960000000000004 14.1819000000000006
  2.2800600000000002  6.1189499999999999 36.1722999999999999
  1.5599700000000001  5.2810199999999998 37.3057000000000016
  8.2361199999999997 10.3550000000000004 39.4251000000000005
  6.9662499999999996  9.6380800000000004 39.1373000000000033
 -3.4922399999999998  9.9490700000000007 20.4919000000000011
 -2.8663099999999999  9.3978199999999994 21.7012999999999998
 10.7013999999999996  7.2419099999999998 39.6546999999999983
 11.2312999999999992  8.3868100000000005 38.8023000000000025
 -4.0923600000000002  8.7834800000000008 35.0061999999999998
 -2.8260900000000002  7.9075699999999998 35.2567000000000021
  4.0659700000000001  5.8680800000000000 25.8867000000000012
  4.4306099999999997  4.6218899999999996 26.6507000000000005
 10.6809999999999992  8.0486299999999993 23.4451999999999998
  9.7155400000000007  9.2135300000000004 23.2783000000000015
  0.4651450000000000  7.5855399999999999 14.8429000000000002
  0.0647871000000000  6.1308400000000001 14.4695000000000000
 13.8573000000000004  5.0976800000000004 23.6116999999999990
 12.3928999999999991  4.3409899999999997 23.5546000000000006
  6.9257600000000004  1.3480900000000000 28.5532000000000004
  6.4660599999999997  2.7253599999999998 29.2363999999999997
  4.2226800000000004  7.4697800000000001 14.1552000000000007
  3.5197799999999999  7.7670500000000002 15.5261999999999993
  9.1805199999999996  2.4064399999999999 25.2110999999999983
  9.9669200000000000  3.1117699999999999 26.1624000000000017
 -2.5733299999999999  4.9528400000000001 14.2034000000000002
 -2.0594700000000001  5.3012699999999997 15.8161000000000005
  2.2818700000000001  5.5714800000000002 27.6509999999999998
  3.5958700000000001  6.4324399999999997 27.4990999999999985
 -4.2436100000000003 10.5295000000000005 33.0705000000000027
 -2.9199199999999998 10.7309999999999999 32.1873000000000005
  5.1183100000000001  7.7750199999999996 21.4810000000000016
  6.4035200000000003  7.1325799999999999 21.3719000000000001
 10.1572999999999993  2.3831600000000002 38.8937999999999988
  8.6095699999999997  1.6493700000000000 39.1557000000000031
  1.1277600000000001  3.6203200000000000 25.2312000000000012
  0.3107820000000000  3.1937700000000002 23.6722999999999999
 12.7142999999999997  5.8045499999999999 18.4371000000000009
 12.1211000000000002  6.6965500000000002 19.5599999999999987
  5.3055500000000002  9.2604900000000008 31.0534999999999997
  6.3082799999999999  8.2054200000000002 30.5834000000000010
 -4.5437399999999997 14.4277999999999995 33.9140000000000015
 -5.0682200000000002 13.6295999999999999 32.7137999999999991
 16.5109999999999992  0.5699460000000000 29.9188000000000009
 15.1303999999999998  1.0123599999999999 30.5186999999999991
  2.1531400000000001  0.2398980000000000 24.7984000000000009
  2.3394400000000002  1.6987099999999999 24.6793000000000013
 11.3665000000000003  9.3318100000000008 14.7372999999999994
 -5.6280999999999999 10.8954000000000004 14.5236999999999998
 -3.4033899999999999  7.4096000000000002 21.9051000000000009
 -3.0791499999999998  6.9857300000000002 20.4651999999999994
  6.5334199999999996 11.0489999999999995 36.0863000000000014
  8.0890000000000004 10.7225000000000001 35.9821000000000026
  3.7471700000000001  5.6843599999999999 37.6809000000000012
  4.5896400000000002  5.1628699999999998 38.8740000000000023
 -4.1684500000000000 12.2491000000000003 16.5459999999999994
 -2.9147099999999999 11.3674999999999997 16.6776000000000018
 10.7494999999999994  6.3279899999999998 30.4556000000000004
 10.3873999999999995  4.7781799999999999 30.4637999999999991
  2.9480900000000001 11.6539999999999999 34.2963000000000022
  3.3791500000000001 10.2713999999999999 34.4420000000000002
 -1.5338300000000000  9.9437700000000007 15.4255999999999993
 -1.0978000000000001 10.8018000000000001 14.2093000000000007
  5.8204399999999996  8.2950999999999997 33.0805999999999969
  5.9247800000000002  6.7852899999999998 32.8385999999999996
 12.7032000000000007  5.4146799999999997 25.7182999999999993
 12.6738000000000000  6.2841600000000000 27.0423000000000009
  0.0240466000000000  2.0550600000000001 32.5805999999999969
 -0.7113450000000000  2.7326299999999999 33.7079000000000022
  0.6851000000000000  8.5259199999999993 22.4004000000000012
  0.5697300000000000  7.8304200000000002 23.7114000000000011
  0.7400720000000000 14.2543000000000006 17.6397000000000013
  8.9305699999999995  1.1730700000000001 17.8562000000000012
  0.5363690000000000 10.6433000000000000 39.4215000000000018
  2.0834199999999998 10.2828999999999997 39.0778999999999996
  0.3798180000000000  0.6670060000000000 19.8016000000000005
 -0.5707060000000000  1.6478699999999999 19.0227000000000004
  0.7660330000000000  9.7813199999999991 37.2546999999999997
 -0.3187420000000000  9.7315600000000000 36.1888000000000005
  0.5027350000000000 13.6054999999999993 14.9865999999999993
  9.2512299999999996  0.4020990000000000 15.6145999999999994
 -3.7501099999999998 13.4579000000000004 19.5259999999999998
 -2.6996899999999999 14.0281000000000002 20.4960999999999984
  5.2660099999999996  7.9889200000000002 26.4118999999999993
  5.0045299999999999  9.0101600000000008 25.4248000000000012
  8.0090800000000009  0.2918760000000000 32.4144999999999968
 -0.1298700000000000 14.0875000000000004 31.1780000000000008
 -0.9799980000000000 11.0176999999999996 24.2207000000000008
 -0.8907929999999999  9.6448199999999993 23.6573999999999991
  3.3180200000000002  9.6419400000000000 21.3478999999999992
  3.4409900000000002 10.9916999999999998 20.3767999999999994
 -0.1111660000000000  1.1153299999999999 35.7866000000000000
  0.0283588000000000  2.5138099999999999 36.0033000000000030
  1.5999099999999999  2.2845300000000002 37.4789000000000030
  1.8027700000000000  3.3264800000000001 36.5172999999999988
 13.4585000000000008  2.1882799999999998 24.1630000000000003
 12.4713999999999992  1.4824999999999999 23.1427000000000014
 -2.6613099999999998 13.5947999999999993 23.4882999999999988
 -3.0797699999999999 12.3945000000000007 22.6296999999999997
  5.1320499999999996  4.4375900000000001 22.4216000000000015
  4.4373500000000003  3.4837400000000001 21.3960000000000008
  2.1188199999999999 12.7881999999999998 25.5709000000000017
  3.3186700000000000 13.7058000000000000 25.4910999999999994
 -0.4454610000000000 11.7199000000000009 16.7824999999999989
 -0.4949570000000000 11.6839999999999993 18.3073000000000015
 -3.8591600000000001  8.1836400000000005 27.7909000000000006
 -2.6692600000000000  7.3550800000000001 26.8090000000000011
  8.0681499999999993  3.6635499999999999 33.8316999999999979
  6.4226000000000001  4.0629000000000000 33.7789000000000001
 -1.7787100000000000  5.9586100000000002 22.5115000000000016
 -1.3483499999999999  4.3889800000000001 22.5828999999999986
  5.5817399999999999  2.8813100000000000 39.1355000000000004
  6.3858899999999998  3.5114399999999999 38.0075999999999965
 11.5113000000000003  0.5289340000000000 29.6512999999999991
 12.2045999999999992  1.8831000000000000 29.9342000000000006
  1.7881899999999999  5.1849499999999997 21.8572999999999986
  2.2064900000000001  4.2974600000000001 23.0557000000000016
 -0.1378990000000000  0.8452220000000000 39.9382999999999981
 -0.5922480000000000  2.0515699999999999 39.0212999999999965
 -3.7729900000000001 11.5038000000000000 26.5254000000000012
 -3.8985900000000000 12.7815999999999992 27.3460999999999999
 10.3429000000000002  7.9046799999999999 16.2752000000000017
  9.5701999999999998  8.0304900000000004 14.9560999999999993
 -1.5664600000000000 12.5581999999999994 26.8097999999999992
 -0.7352760000000000 13.9223999999999997 26.8707999999999991
 10.7093000000000007  2.4073600000000002 33.3282000000000025
  9.8102300000000007  1.0990000000000000 32.6584999999999965
  3.0048200000000000 14.2416999999999998 14.6018000000000008
 12.1511999999999993  1.1190300000000000 14.8887999999999998
  4.7896900000000002  5.6482099999999997 20.1604999999999990
  3.6035300000000001  4.8061499999999997 19.6839000000000013
  3.2181999999999999  7.3474700000000004 39.3845999999999989
  2.0060899999999999  8.2815399999999997 39.3770999999999987
  3.7782000000000000  6.2555800000000001 29.7627999999999986
  4.5229200000000001  7.1011100000000003 30.8675999999999995
  8.5216899999999995  4.9592099999999997 22.0713000000000008
  8.8064099999999996  3.4458799999999998 22.4298000000000002
 -3.2010800000000001  6.5860700000000003 14.5561000000000007
 12.3094999999999999  7.1971499999999997 14.8572000000000006
 -7.7598200000000004 14.1524000000000001 37.3096999999999994
 -7.6924200000000003 13.5372000000000003 35.8061999999999969
  4.6869300000000003  0.4275180000000000 39.0161999999999978
  3.6705899999999998  1.6121500000000000 38.8089000000000013
  1.6987099999999999 12.5390999999999995 31.8231000000000002
  1.7952300000000001 11.2721999999999998 30.9898999999999987
 -0.1327410000000000  0.1852390000000000 15.0526000000000000
 15.1715999999999998  0.7563960000000000 15.0736000000000008
 13.4092000000000002  3.0234899999999998 15.0752000000000006
 13.4503000000000004  2.2997600000000000 16.5686000000000000
  9.3532100000000007  7.5667499999999999 17.9761999999999986
 10.5259999999999998  8.4246599999999994 18.2181999999999995
 -4.9250800000000003 12.9772999999999996 29.9652999999999992
 -3.6671700000000000 12.5889000000000006 29.1706000000000003
  9.5172600000000003  7.7468899999999996 20.4141000000000012
 10.5782000000000007  7.9116000000000000 21.5533999999999999
 -2.9699700000000000 13.0175999999999998 39.7374999999999972
 -4.1141500000000004 12.7826000000000004 38.6253999999999991
 -1.7206900000000001 10.8683999999999994 20.4771000000000001
 -2.1427499999999999 12.0551999999999992 19.4594999999999985
 -6.3504600000000000 11.6384000000000007 34.4953999999999965
 -6.2553700000000001 13.0959000000000003 34.2888999999999982
  7.2459800000000003  7.1603199999999996 17.8802999999999983
  7.5844300000000002  5.8158700000000003 18.6590999999999987
  1.2535799999999999 12.8306000000000004 35.5208000000000013
  0.4939900000000000 11.5487000000000002 35.5983999999999980
  4.1082299999999998 13.0646000000000004 39.4607000000000028
 11.9352999999999998 -0.0049526200000000 39.3939000000000021
  9.3960799999999995 12.3467000000000002 14.8018999999999998
 -6.0649699999999998 13.0378000000000007 14.8638999999999992
  9.0777900000000002  5.7696500000000004 39.0955000000000013
  7.6961500000000003  5.2016299999999998 39.4042999999999992
 13.6850000000000005  0.5973370000000000 18.8430999999999997
 14.2959999999999994  0.4179490000000000 17.4050000000000011
 -0.2611380000000000  2.5954400000000000 15.6572999999999993
  0.3138980000000000  3.7068699999999999 14.7134000000000000
  2.9548899999999998  4.0982799999999999 38.9284000000000034
  1.8447899999999999  3.2848500000000000 39.7631999999999977
  2.4938199999999999 12.7248999999999999 37.9149000000000029
  1.8415699999999999 14.1623999999999999 37.8288000000000011
  3.8559600000000001 13.2082999999999995 19.4950000000000010
  4.9283200000000003 12.1517999999999997 18.9847999999999999
  6.7546900000000001 10.4162999999999997 17.9112000000000009
  5.6896599999999999 11.0259000000000000 17.0847000000000016
  6.3612799999999998  2.8535400000000002 22.4812000000000012
  6.5668600000000001  2.0823100000000001 23.9529999999999994
  7.1314900000000003  3.2616700000000001 14.9138000000000002
  6.5148999999999999  3.6614900000000001 16.3112999999999992
 -7.3743100000000004 12.7604000000000006 31.6561999999999983
 -7.2211699999999999 14.2477000000000000 31.1971999999999987
  0.1159690000000000 11.4593000000000007 32.4500000000000028
 -1.0049999999999999 11.7749000000000006 33.4934999999999974
  6.6118600000000001  3.9087700000000001 20.0375000000000014
  8.0778800000000004  3.8165600000000000 20.4017000000000017
  3.0264700000000002  9.6202000000000005 28.8303000000000011
  2.0704500000000001 10.9034999999999993 28.4999000000000002
  9.9695999999999998  5.2024800000000004 35.1328999999999994
  8.8459500000000002  4.2975099999999999 35.5867999999999967
  4.4272700000000000  0.5521170000000000 30.2745999999999995
  2.9944299999999999  0.4962030000000000 29.6317999999999984
 -2.0049999999999999 11.1404999999999994 35.5388000000000019
 -2.1677700000000000 10.4339999999999993 36.8900999999999968
  9.3355700000000006  0.6844930000000000 23.6427000000000014
 10.6867000000000001  1.0548599999999999 24.3162999999999982
 -2.2863600000000002  7.2539499999999997 31.7509000000000015
 -2.6566999999999998  8.6343499999999995 32.2787999999999968
  2.9435400000000000  3.2288800000000002 32.3466999999999985
  2.9111699999999998  1.8360399999999999 31.6393999999999984
  2.5675500000000002  6.5589599999999999 32.1980999999999966
  1.8631899999999999  7.1559999999999997 33.2959000000000032
  0.2291240000000000  7.2843700000000000 27.9356000000000009
  0.0462614000000000  8.4909199999999991 27.0809999999999995
 14.9189000000000007  2.8493800000000000 26.8004999999999995
 -1.1614400000000000  3.9030399999999998 27.8312999999999988
 -0.2803810000000000  9.6820599999999999 29.3521999999999998
 -0.4879730000000000 11.2644000000000002 29.3154000000000003
  9.7426999999999992  5.2318800000000003 14.3082999999999991
  9.2205499999999994  4.5219699999999996 15.4624000000000006
  4.7374099999999997 13.3445999999999998 16.0528000000000013
  6.2099299999999999 13.4732000000000003 15.6120000000000001
 -4.8666499999999999 12.3265999999999991 23.9374000000000002
 -5.6495199999999999 11.8977000000000004 25.2459999999999987
  8.8134300000000003  4.9485299999999999 17.7150999999999996
  8.9401299999999999  3.4884700000000000 16.8474000000000004
  5.3184100000000001 13.4227000000000007 26.3590000000000018
  4.3024500000000003 13.3686000000000007 27.6058999999999983
  7.6614000000000004  6.7655900000000004 37.6921000000000035
  7.6219500000000000  7.9866099999999998 36.6739000000000033
  1.5097799999999999 13.6892999999999994 19.6962000000000010
  2.1106099999999999 13.9121000000000006 21.1271999999999984
 -3.9768400000000002 14.3969000000000005 15.0155999999999992
  3.1484999999999999  0.7476080000000001 14.9113000000000007
 14.3896999999999995  3.0919400000000001 30.1862999999999992
 13.5349000000000004  2.7484799999999998 31.3735999999999997
 -2.9748500000000000  8.6910699999999999 15.5803999999999991
 -1.9045000000000001  8.3909699999999994 16.8491000000000000
  1.7857700000000001  0.4164570000000000 21.5731999999999999
 -6.7592299999999996 13.6470000000000002 20.7733999999999988
 15.5795999999999992  0.5508010000000000 33.8198999999999970
  7.0049999999999999 14.1809999999999992 32.7661000000000016
  7.5541499999999999 13.5300999999999991 39.0118000000000009
  6.6819699999999997 12.1260999999999992 39.2843999999999980
 -0.3066440000000000  6.4453399999999998 35.9949000000000012
 -0.9440900000000000  7.5245100000000003 37.1561999999999983
 12.7788000000000004  6.7074999999999996 23.6475000000000009
 -3.9568099999999999  8.3368199999999995 23.8649999999999984
  9.5801400000000001  0.5566480000000000 28.5011000000000010
  9.3428699999999996  1.4349300000000000 27.1902000000000008
  0.9120130000000000  6.1875099999999996 39.7222000000000008
  0.2073820000000000  6.7385400000000004 38.4142000000000010
 13.7819000000000003  0.9487300000000000 26.1267999999999994
 12.8307000000000002  2.2047699999999999 26.2230999999999987
  4.0470699999999997  2.3125499999999999 28.6022999999999996
  4.1436900000000003  3.7668900000000001 28.8079000000000001
 14.1625999999999994  0.1892810000000000 36.8511999999999986
 14.8790999999999993  1.4026300000000000 36.3333999999999975
  3.4011000000000000 10.7164999999999999 32.0623000000000005
  4.5030700000000001 11.3132999999999999 32.9142000000000010
 11.5471000000000004  3.3037500000000000 37.9260000000000019
 10.4763999999999999  3.6815899999999999 36.8147999999999982
 -5.7994599999999998 12.1439000000000004 18.9312000000000005
 -5.8535100000000000 13.6416000000000004 18.6753000000000000
  4.9199599999999997 10.9849999999999994 14.6389999999999993
  4.9830500000000004  9.5558200000000006 15.0792999999999999
 13.1893999999999991  1.9312000000000000 38.1214999999999975
 12.7344000000000008  2.3074400000000002 39.6293999999999969
 11.4855000000000000  6.9713799999999999 34.9964000000000013
  9.8500399999999999  7.3889399999999998 35.2109000000000023
  2.6721100000000000  1.4987500000000000 33.7798000000000016
  2.4701200000000001  1.4444100000000000 35.2468999999999966
  7.5091400000000004 13.8024000000000004 18.2551999999999985
  8.1833899999999993 12.6043000000000003 18.8583999999999996
 10.6934000000000005  8.1049799999999994 32.1548999999999978
  1.0265599999999999  3.9206699999999999 19.6396000000000015
  9.5177600000000009 10.8118999999999996 22.8146999999999984
 13.5691000000000006  5.6615099999999998 38.0322000000000031
  0.0851782000000000  4.6194600000000001 33.8200000000000003
  5.0192899999999998  4.6671600000000000 16.5448999999999984
 12.2087000000000003  5.1953699999999996 17.2825999999999986
 12.2766000000000002  4.2709099999999998 32.6210000000000022
  1.4467500000000000 11.8989999999999991 27.2184999999999988
  8.7904699999999991 10.8796999999999997 31.7184999999999988
  6.4980700000000002  0.8705590000000000 33.2321000000000026
  6.4649900000000002 10.7136999999999993 28.0655999999999999
  9.5300300000000000  3.3703500000000002 30.6369000000000007
 -4.3211899999999996  9.3975500000000007 18.4932000000000016
 -7.0755499999999998 13.5663999999999998 38.8881000000000014
 -0.8810760000000000 12.7850000000000001 30.5015999999999998
  0.2785770000000000  4.4451999999999998 30.6305000000000014
 10.7806999999999995 10.2617999999999991 28.0133000000000010
 -1.9567300000000001  4.9161799999999998 32.1276999999999973
  5.5687100000000003 12.5858000000000008 36.7439999999999998
  4.4438199999999997 11.0791000000000004 24.2777999999999992
  5.6420599999999999  7.8324900000000000 18.2165999999999997
 -1.0566800000000001  3.0218400000000001 22.0918999999999990
  0.1527390000000000  7.1146900000000004 30.0723999999999982
  2.3574700000000002 12.0914000000000001 17.9003000000000014
  7.2600899999999999  9.0839900000000000 33.3200000000000003
 -0.9628480000000000  5.2911599999999996 17.5151000000000003