 H  O Pt 
 1.0000000000000000
    16.8689999999999998    0.0000000000000000    0.0000000000000000
    -8.4344999999999999   14.6089825363999992    0.0000000000000000
     0.0000000000000000    0.0000000000000000   41.4780000000000015
   H   O  Pt
 460 230 216
Cartesian
 13.5460999999999991  4.6023899999999998 20.5272000000000006
 12.9837000000000007  3.3902199999999998 19.6972999999999985
 -0.7223889999999999  9.0373900000000003 31.4185000000000016
 -2.0847199999999999  9.0336599999999994 30.3223999999999982
  7.4955800000000004  1.1191000000000000 22.5994999999999990
  7.0418500000000002  0.7547130000000000 24.0000999999999998
 -3.2544800000000000 12.5267999999999997 23.3843999999999994
 -2.9964900000000001 14.0541999999999998 23.2313000000000009
  5.5618200000000000  2.3544200000000002 35.2586999999999975
  5.6699900000000003  1.8202400000000001 33.7935999999999979
 14.7847000000000008  2.6961800000000000 17.9314999999999998
 -1.9076900000000001  3.9169399999999999 17.0756000000000014
 -1.0680600000000000  3.2220599999999999 27.1434999999999995
 -0.3705000000000000  2.5336200000000000 25.9926999999999992
 11.5305999999999997  6.6040200000000002 37.5685000000000002
 12.8580000000000005  6.0583299999999998 36.9757999999999996
 13.6097000000000001  1.8318800000000000 30.0270000000000010
 13.4239999999999995  2.2592900000000000 28.5492999999999988
  6.0769299999999999 10.5874000000000006 35.0099000000000018
  5.1964100000000002 11.8118999999999996 35.3423999999999978
 -2.4190700000000001 12.0017999999999994 30.3824000000000005
 -1.1867200000000000 11.0762000000000000 30.6017000000000010
 11.7363000000000000  2.2120700000000002 33.4213999999999984
 12.0273000000000003  3.5280399999999998 33.7235000000000014
 10.6366999999999994  1.8450500000000001 38.9893000000000001
  9.2106499999999993  1.1758200000000001 39.2045999999999992
  7.4173999999999998  0.4254070000000000 17.2369999999999983
  7.0458299999999996  0.8067450000000000 18.6482999999999990
 -1.2844899999999999  9.9019999999999992 37.7004000000000019
 -0.4391260000000000  8.6424699999999994 37.4149000000000029
  0.4434230000000000  4.8180500000000004 28.0116000000000014
 -0.4060930000000000  5.9238099999999996 27.1360999999999990
  1.7761600000000000  1.3548500000000001 28.7332000000000001
  0.3429330000000000  1.5635300000000001 28.0435000000000016
  7.6435700000000004  8.9795200000000008 24.5603000000000016
  6.9658600000000002 10.3209000000000000 24.2587000000000010
 10.7640999999999991  5.6598800000000002 32.6993000000000009
  9.5898000000000003  5.9570400000000001 31.6692000000000000
 -0.5453490000000000 13.2201000000000004 39.1694999999999993
  1.0592299999999999 13.3406000000000002 39.0073000000000008
 -5.3009000000000004  9.3968699999999998 26.9699999999999989
 -3.9391699999999998  9.9627999999999997 27.1380000000000017
  4.3577300000000001  1.3063499999999999 21.5963999999999992
  5.0298100000000003  1.9133899999999999 22.8090000000000011
  8.6287000000000003 11.9978999999999996 37.6139000000000010
 -7.1351300000000002 12.8018000000000001 38.3581999999999965
  6.6237899999999996 14.5769000000000002 24.4217000000000013
  7.3993399999999996 13.3893000000000004 24.9239999999999995
  8.2222200000000001  6.7214099999999997 33.6289000000000016
  7.0958500000000004  6.7780199999999997 34.5981000000000023
  1.5814400000000000  7.8900100000000002 17.2789999999999999
  1.2595200000000000  8.8880999999999997 16.0325999999999986
  1.5882900000000000 10.8765000000000001 14.6073000000000004
  1.4266300000000001  9.5973600000000001 13.8536999999999999
  2.2713100000000002 14.0345999999999993 16.0152000000000001
  2.2067299999999999 13.8531999999999993 14.5732999999999997
  9.1204699999999992  6.6547999999999998 18.4806999999999988
 10.5053999999999998  7.5876999999999999 17.9647000000000006
 -3.1260400000000002 14.0366999999999997 14.4812999999999992
 -3.8215800000000000 12.7614999999999998 14.3889999999999993
  9.1463199999999993  2.6424200000000000 30.9146999999999998
  8.3818900000000003  3.3931499999999999 32.0090000000000003
 11.4596000000000000  5.8677099999999998 30.3747000000000007
 13.0678000000000001  5.8297900000000000 30.2086000000000006
 12.8748000000000005  1.4443100000000000 26.3506000000000000
 14.2734000000000005  2.1216400000000002 26.3963000000000001
  6.5690200000000001  0.4416940000000000 39.3051000000000030
  6.6137199999999998  2.0288599999999999 39.6084000000000032
  6.9486400000000001  6.0332200000000000 18.9373000000000005
  7.0921700000000003  6.8139599999999998 20.3216999999999999
  3.4113799999999999  6.2597800000000001 14.8004999999999995
  4.7349899999999998  5.5786100000000003 15.2913999999999994
  5.7099599999999997  2.5945900000000002 15.0413999999999994
  4.1820700000000004  2.0055000000000001 14.7766000000000002
  7.2358099999999999  4.4524999999999997 26.2894000000000005
  8.3027400000000000  4.1909900000000002 27.5752999999999986
 -1.7684700000000000  8.7908899999999992 14.6311000000000000
 -1.5553200000000000 10.3020999999999994 14.9121000000000006
  6.7108299999999996  4.4503100000000000 38.1807999999999979
  7.0915100000000004  4.0957699999999999 39.7550000000000026
  2.4209999999999998 14.6130999999999993 24.1493000000000002
  2.8066300000000002 14.6457999999999995 22.7209000000000003
  1.0608100000000000  3.9003299999999999 34.9391999999999996
  1.0088500000000000  2.6102900000000000 34.1567999999999969
 -2.7621600000000002  6.0637800000000004 22.6908999999999992
 -2.8396800000000000  6.1221800000000002 24.2870999999999988
 -4.7404999999999999 10.7799999999999994 14.3930000000000007
 10.7449999999999992 10.4573999999999998 14.9280000000000008
  5.1907699999999997  5.8309300000000004 37.1925999999999988
  6.4312300000000002  6.4191900000000004 36.7012000000000000
 -0.8989310000000000  4.3236200000000000 32.7730000000000032
 -1.5029100000000000  4.5611600000000001 31.3927000000000014
  0.0028088200000000  7.7268299999999996 35.4879999999999995
  1.4857000000000000  7.7101800000000003 35.5878000000000014
 -3.8355999999999999  8.8545400000000001 15.0334000000000003
 11.4410000000000007  8.2860800000000001 14.8549000000000007
  3.9693499999999999  7.4904200000000003 17.2720999999999982
  4.3394000000000004  8.7441099999999992 17.9974999999999987
  7.6205800000000004 10.0539000000000005 37.5583000000000027
  7.3230100000000000 11.1850000000000005 38.6343000000000032
 -0.3473450000000000  1.8872800000000001 22.7989999999999995
  0.4351090000000000  0.8988230000000000 23.2967000000000013
 -3.5045400000000000 11.6083999999999996 38.6786000000000030
 -2.6633900000000001 10.9346999999999994 39.8363999999999976
 -0.1126630000000000  5.4847200000000003 35.9857000000000014
 -1.3240799999999999  4.4771299999999998 35.8881000000000014
 -2.2104800000000000  7.9367900000000002 35.1090999999999980
 -1.8606799999999999  7.6511800000000001 36.5914000000000001
  4.9806100000000004 12.1290999999999993 16.6219999999999999
  5.3802800000000000 13.5442999999999998 17.3192999999999984
  0.3682460000000000  7.1504899999999996 14.4648000000000003
  1.3839800000000000  5.9428700000000001 14.3870000000000005
  5.8786100000000001 11.1667000000000005 20.8150000000000013
  5.9519200000000003 11.6820000000000004 19.0729000000000006
  4.0450699999999999 10.5737000000000005 18.5459999999999994
  3.1818000000000000 10.2127999999999997 17.2546999999999997
 10.8391000000000002  0.1050990000000000 33.2316000000000003
  2.4933299999999998 13.8263999999999996 32.0183999999999997
 -4.1089799999999999  8.8177599999999998 21.5360000000000014
 -4.4925800000000002  9.9113100000000003 20.5298000000000016
  2.8912300000000002  6.7167300000000001 18.6721000000000004
  2.7611200000000000  5.1848900000000002 18.8397000000000006
  6.7323000000000004  2.3851700000000000 37.4286000000000030
  6.9392199999999997  1.1133800000000000 36.6067999999999998
 11.1126000000000005  9.8390900000000006 17.7624999999999993
 -4.6183500000000004  8.7135200000000008 17.8179000000000016
  3.1097600000000001 12.2140000000000004 32.9346999999999994
  3.6713499999999999 10.9916999999999998 33.8093999999999966
 14.2560000000000002  0.9283650000000000 39.7227999999999994
 14.3157999999999994  1.3008800000000000 38.2085999999999970
 -4.9543400000000002 12.7332000000000001 37.3483999999999980
 -4.5488799999999996 13.7993000000000006 36.3286000000000016
  9.0418400000000005 12.0000000000000000 22.9009999999999998
  9.1313999999999993 10.4878000000000000 23.0152999999999999
  7.7442000000000002 12.7942000000000000 17.3611000000000004
  8.0497899999999998 11.2413000000000007 17.4407999999999994
  6.7385900000000003  9.4566499999999998 16.5163000000000011
  6.3698399999999999  9.9602900000000005 15.0618999999999996
 11.0716999999999999  9.3477200000000007 35.6113000000000000
 10.9983000000000004  9.7032600000000002 37.1343000000000032
  2.7562400000000000  0.3245870000000000 38.7588000000000008
 -6.0911999999999997 13.8582999999999998 39.8646000000000029
 14.0061000000000000  2.2225899999999998 23.7749999999999986
 14.4276999999999997  3.2069100000000001 24.7012000000000000
  3.5822400000000001 12.4411000000000005 38.9624999999999986
  3.4346700000000001 14.0791000000000004 39.1445000000000007
 12.1112000000000002  1.9982599999999999 22.5450000000000017
 12.6626999999999992  3.3262900000000002 22.1006999999999998
  3.4390800000000001  7.4375400000000003 39.3920000000000030
  2.0293700000000001  7.2957400000000003 39.3355999999999995
  7.3068299999999997  8.0470900000000007 27.6050000000000004
  6.3328100000000003  7.0275400000000001 27.4936000000000007
  2.6225600000000000  0.6780730000000000 35.8365999999999971
  4.0391599999999999  0.6986450000000000 35.0255000000000010
  1.8671400000000000  5.6598400000000000 32.2310999999999979
  0.9697090000000000  4.8331200000000001 33.1527000000000029
 -1.3688700000000000 12.9318000000000008 26.6207999999999991
 -2.8254899999999998 13.4964999999999993 26.7557000000000009
 11.1388999999999996  2.1188300000000000 14.9329999999999998
  9.8768799999999999  2.9139499999999998 14.9395000000000007
  6.0116100000000001  7.3434999999999997 30.0503999999999998
  7.1160100000000002  7.0433700000000004 30.9437999999999995
  1.7714300000000001  1.0402499999999999 25.3421999999999983
  2.9093499999999999  2.0008599999999999 25.5545000000000009
  4.2174800000000001  4.5287800000000002 26.8129999999999988
  3.7850999999999999  5.8418999999999999 26.0412999999999997
  1.5913100000000000 10.5762999999999998 33.1334999999999980
  0.0214556000000000 10.9565999999999999 33.4468999999999994
 10.1455000000000002  1.6175400000000000 18.0625999999999998
  9.3370400000000000  0.1742720000000000 18.3066999999999993
 10.4745000000000008  8.2987300000000008 21.8362000000000016
  9.0173299999999994  7.4499800000000000 21.8838000000000008
  3.4159600000000001  4.1966900000000003 37.6379000000000019
  3.3100000000000001  5.1593600000000004 38.8359000000000023
 10.4014000000000006  1.9766300000000001 28.1383000000000010
 10.6397999999999993  2.4546700000000001 26.6559999999999988
 12.8165999999999993  0.9362770000000000 17.6175999999999995
 13.9530999999999992  1.2978200000000000 16.6461000000000006
  0.0904664000000000 14.1381999999999994 35.7766000000000020
  9.2609899999999996  0.5133799999999999 36.7021999999999977
 10.6847999999999992  4.5546499999999996 21.2164999999999999
 10.3437999999999999  6.1039500000000002 20.7564999999999991
  2.5200300000000002  2.7746700000000000 18.7672999999999988
  4.1228199999999999  3.0983999999999998 19.0372999999999983
 11.0563000000000002  3.4007299999999998 24.1397000000000013
  9.6891599999999993  2.7683700000000000 24.4574999999999996
  7.5080600000000004  5.9138200000000003 15.2638999999999996
  7.0415799999999997  7.2864699999999996 15.7261000000000006
 -3.7530100000000002 12.4753000000000007 16.5463999999999984
 -4.7515499999999999 11.4809000000000001 17.0564999999999998
  3.5458099999999999  2.4194100000000001 38.4953999999999965
  4.6100199999999996  1.4412799999999999 37.9461000000000013
  0.3090740000000000 11.9877000000000002 36.1251000000000033
 -1.1453800000000001 12.3086000000000002 35.5041999999999973
  3.0239500000000001 12.7469999999999999 20.7045999999999992
  2.2163400000000002 12.1082000000000001 19.5546000000000006
 -3.1064600000000002 13.6819000000000006 38.0510999999999981
 -2.8876499999999998 13.5714000000000006 39.5902999999999992
 -3.9521000000000002  9.2375399999999992 39.0786999999999978
 -4.2219100000000003  8.4712300000000003 37.7237999999999971
  9.2151200000000006  5.4115399999999996 23.7007000000000012
  7.9844600000000003  6.1150599999999997 24.3089000000000013
 -1.8421099999999999  9.3724200000000000 20.7034999999999982
 -1.4049000000000000  9.4615200000000002 19.1780000000000008
  2.7551700000000001  8.1834600000000002 26.4682999999999993
  2.6628500000000002  6.9186699999999997 27.5235999999999983
  1.5749299999999999 10.6631000000000000 37.3562000000000012
  1.5761099999999999 10.0960000000000001 35.7971000000000004
 10.1311000000000000  4.0676899999999998 29.3363000000000014
 11.0609999999999999  3.0335700000000001 29.9172000000000011
  8.1556599999999992  3.0849099999999998 20.8338999999999999
  8.2113999999999994  4.5151800000000000 20.4699999999999989
 -4.0014700000000003  9.7321200000000001 29.6876999999999995
 -4.2596699999999998  8.2816100000000006 30.1339000000000006
 12.6856000000000009  0.2121090000000000 20.6659000000000006
 11.2135999999999996  0.1179770000000000 19.8945000000000007
 -1.6505300000000001  9.5630600000000001 16.8931000000000004
 -2.7145199999999998 10.4954000000000001 17.4968000000000004
  1.2542199999999999 10.0886999999999993 29.0015999999999998
  2.2248199999999998 10.0429999999999993 28.0550999999999995
  3.8970300000000000  8.6240199999999998 23.0293999999999990
  4.0366499999999998  9.7661599999999993 22.0658999999999992
  3.4169800000000001 13.8688000000000002 26.2680000000000007
  4.8137800000000004 13.9268999999999998 25.5498000000000012
 -1.8852800000000001  3.8021400000000001 14.4746000000000006
 -2.5827499999999999  5.0935699999999997 15.0603999999999996
  0.1236790000000000 11.4306999999999999 18.2254000000000005
  0.8356870000000000 10.3416999999999994 17.5752999999999986
  9.1256000000000004 11.2173999999999996 24.9462000000000010
  9.1423500000000004 11.2437000000000005 26.5167999999999999
 -1.9921599999999999 11.2662999999999993 22.8552000000000000
 -2.8863699999999999 10.0679999999999996 23.5057000000000009
  1.7353099999999999  3.4237099999999998 39.2629000000000019
  0.0693115000000000  3.7047099999999999 39.1861999999999995
  6.1871499999999999 10.5724000000000000 32.2708000000000013
  5.8723700000000001  9.1424400000000006 32.6873000000000005
  8.6809700000000003 13.8078000000000003 21.9601000000000006
  8.5305499999999999 12.6349000000000000 20.9178999999999995
  7.8389300000000004  2.9718599999999999 16.7647000000000013
  6.9606700000000004  4.2239399999999998 16.5549999999999997
  3.3269299999999999  8.4979300000000002 36.5829999999999984
  3.4885000000000002  9.1994199999999999 35.3590999999999980
  3.0445099999999998  4.7039200000000001 35.3646000000000029
  4.1504500000000002  3.5067599999999999 35.3121999999999971
  8.6944099999999995  0.8871390000000000 21.0111999999999988
  9.3610799999999994  1.0863499999999999 22.2865000000000002
 10.4116999999999997 10.8257999999999992 21.0280999999999985
  9.6583000000000006 10.0176999999999996 19.7935000000000016
 12.4070000000000000  7.8828600000000000 33.8348999999999975
 10.9899000000000004  8.6393799999999992 33.4386999999999972
 -0.1263950000000000  4.0641600000000002 16.1212000000000018
  1.3102600000000000  4.3313699999999997 16.9033000000000015
 12.2914999999999992  3.4865699999999999 38.9870999999999981
 11.0273000000000003  3.7953199999999998 38.2668000000000035
  9.4255899999999997  7.7362799999999998 31.1319000000000017
  9.3232900000000001  6.8281599999999996 29.9187000000000012
  6.6002900000000002  1.5139000000000000 31.7958999999999996
  5.8196599999999998  0.3211620000000000 31.5369999999999990
  8.3103700000000007 12.8881999999999994 15.1767000000000003
  6.7242699999999997 12.5465999999999998 14.9505999999999997
  7.7196899999999999  3.5878100000000002 33.9446000000000012
  9.0742200000000004  3.3393600000000001 34.6300999999999988
 11.2905999999999995  0.8772110000000000 37.4971000000000032
 11.4627999999999997  1.6444000000000001 36.1843999999999966
 -7.0949000000000000 13.3484999999999996 17.5806000000000004
 -5.6669099999999997 14.1024999999999991 17.9385000000000012
 -2.8488199999999999  7.1984300000000001 32.6614000000000004
 -2.7585099999999998  5.5688399999999998 32.7177999999999969
 10.1037999999999997  5.7269100000000002 15.0333000000000006
  9.6404999999999994  6.0339900000000002 16.6064000000000007
  1.3129999999999999  3.6985899999999998 24.3848999999999982
 -0.0391129000000000  4.3044200000000004 24.2754000000000012
 -4.5061999999999998 13.3015000000000008 25.5329000000000015
 -4.4412599999999998 11.9552999999999994 26.4987999999999992
  9.1259999999999994  0.9182600000000000 34.4337000000000018
  9.1854399999999998  1.7173600000000000 32.9390000000000001
  3.9601700000000002 12.4815000000000005 14.7432999999999996
  3.9152900000000002 11.0607000000000006 14.8329000000000004
  7.6069500000000003  0.6250430000000000 14.6004000000000005
  8.8291799999999991  1.2792600000000001 15.3171999999999997
  7.0480200000000002 10.7911000000000001 26.7880000000000003
  6.0890199999999997 11.6888000000000005 25.9821999999999989
 -5.4081799999999998 13.9054000000000002 32.1343000000000032
 -4.6117999999999997 12.7074999999999996 32.5893000000000015
 -0.2979700000000000  1.2929900000000001 16.5977999999999994
 15.9227000000000007  0.3367420000000000 15.4735999999999994
 14.2178000000000004  1.9385600000000001 20.6999999999999993
 15.1487999999999996  0.9082870000000000 21.4548999999999985
  5.7176600000000004  5.4217500000000003 25.5592000000000006
  5.8940700000000001  5.4918899999999997 23.9216000000000015
  0.7888290000000000  7.6293600000000001 27.1624000000000017
 -0.0288685000000000  7.8939199999999996 25.8903999999999996
  6.2855999999999996 12.3609000000000009 22.6345999999999989
  4.7514500000000002 11.8972999999999995 22.8652000000000015
  1.7661100000000001 10.1067999999999998 31.2437000000000005
  1.0139800000000001  9.0266999999999999 30.4197999999999986
  5.7390699999999999 14.3869000000000007 35.9322000000000017
  4.5149100000000004 13.8425999999999991 36.6477000000000004
  2.2042199999999998  1.3969900000000000 31.8642000000000003
  3.6017199999999998  2.4364300000000001 31.8012000000000015
  4.0797499999999998  8.4483899999999998 29.0046999999999997
  5.5445500000000001  8.9654500000000006 28.8491999999999997
  3.6769599999999998  0.9991290000000000 30.0055000000000014
 -4.8054800000000002 14.5185999999999993 28.8367000000000004
  0.3333330000000000  7.1208299999999998 22.6790999999999983
 -0.7986480000000000  6.5907400000000003 23.6450999999999993
 10.8665000000000003  7.7120100000000003 39.2879000000000005
 10.8213000000000008  6.2257199999999999 39.6447000000000003
 -4.5297700000000001 12.1807999999999996 30.5067999999999984
 -4.4821200000000001 11.8457000000000008 28.8983999999999988
 -0.8278090000000000  6.5389299999999997 16.0475999999999992
 -0.2644580000000000  7.8963999999999999 16.2420000000000009
  2.5548400000000000 10.6723999999999997 23.6098999999999997
  1.8689600000000000 11.9957999999999991 23.7662000000000013
  4.5000000000000000 11.4159000000000006 27.5545000000000009
  3.5140400000000001 12.0744000000000007 28.5534999999999997
  3.3153299999999999  8.4266299999999994 14.5409000000000006
  4.7793400000000004  8.5427800000000005 15.1194000000000006
  1.5137499999999999 10.7590000000000003 25.2958999999999996
  0.6615960000000000  9.9277999999999995 26.0255000000000010
  7.1517700000000000 13.6999999999999993 38.6927999999999983
  6.0525799999999998 12.8201000000000001 37.9207999999999998
 -2.9776899999999999 10.0344999999999995 36.2042000000000002
 -3.4949599999999998 11.5762999999999998 36.2381999999999991
  7.5833199999999996  8.3570899999999995 18.7497000000000007
  7.0360500000000004  9.8395200000000003 18.9349999999999987
 12.2949000000000002  5.0490199999999996 14.0541999999999998
 12.4335000000000004  6.4620199999999999 14.5882000000000005
  4.4777399999999998 10.3719999999999999 36.8725999999999985
  4.5509199999999996  9.8244799999999994 38.2755000000000010
 -1.8178300000000001  5.6557100000000000 38.6753000000000000
 -0.6542160000000000  5.1144800000000004 37.5444000000000031
  6.5107900000000001 13.5002999999999993 27.6485999999999983
 14.5431000000000008  0.3436310000000000 27.3892999999999986
 -1.6228199999999999 10.6387999999999998 26.6805999999999983
 -1.4522299999999999 11.4375999999999998 25.2979999999999983
  1.1941600000000001  9.2625600000000006 21.8406999999999982
  1.5079899999999999 10.7079000000000004 21.4327000000000005
  2.1646299999999998  2.9668700000000001 15.3573000000000004
  2.5647099999999998  1.9119999999999999 16.1736000000000004
  5.7951899999999998  5.1703599999999996 30.3747000000000007
  5.8986499999999999  3.7404899999999999 29.7866999999999997
 -2.3845200000000002  7.5518099999999997 18.0023000000000017
 -3.2703899999999999  6.4994300000000003 17.4893999999999998
  6.1186999999999996 12.9877000000000002 31.0214999999999996
  5.6059000000000001 13.8033999999999999 29.7316000000000003
 12.6785999999999994  1.0136499999999999 14.1661000000000001
 13.4617000000000004  2.3540600000000000 14.6189000000000000
  4.6261299999999999  7.5927699999999998 31.7533999999999992
  3.1672199999999999  8.1686899999999998 32.0354000000000028
  8.4515700000000002 12.2622999999999998 32.4153999999999982
  8.4096700000000002 12.8180999999999994 30.9551000000000016
  0.2843210000000000  2.2391700000000001 30.9780000000000015
 -0.8354190000000000  2.0703700000000000 31.8146999999999984
  0.4465260000000000  0.2783460000000000 38.8962999999999965
 -0.4888150000000000  1.4334199999999999 39.4806999999999988
 -6.2573600000000003 12.6301000000000005 14.4908000000000001
 -6.1413900000000003 14.2060999999999993 15.0856999999999992
  3.7244600000000001  4.1256599999999999 32.8581000000000003
  4.7133700000000003  4.1529699999999998 31.5548000000000002
  0.4801420000000000  1.6332599999999999 19.4692000000000007
  1.2567999999999999  0.8019880000000000 18.4949000000000012
 11.1532000000000000  5.4236199999999997 18.0579000000000001
 12.1061999999999994  4.2701000000000002 17.3218999999999994
 10.3691999999999993 10.8930000000000007 38.9412999999999982
  9.7095300000000009  9.5315200000000004 39.1075000000000017
 13.6127000000000002  6.0398600000000000 40.1156999999999968
 -3.2118600000000002  7.1130199999999997 38.7939999999999969
 -7.7477900000000002 14.2006999999999994 27.9408999999999992
 -7.2282999999999999 12.7952999999999992 27.5399999999999991
 14.0157000000000007  4.2319899999999997 29.5618000000000016
 -1.4847300000000001  4.8858100000000002 29.1365000000000016
 10.2235999999999994 11.3224000000000000 35.5448000000000022
 -6.5008100000000004 11.9192000000000000 34.0786999999999978
  9.0605600000000006  8.7098700000000004 15.8274000000000008
  9.0675399999999993  8.2895800000000008 14.4535000000000000
  9.6243200000000009  4.2810699999999997 36.6137000000000015
 11.0820000000000007  4.6158999999999999 36.2976000000000028
 13.6397999999999993  4.9251699999999996 35.4829999999999970
 13.7287999999999997  3.4481700000000002 34.9675999999999974
 10.2642000000000007  3.6926000000000001 17.8161999999999985
  9.0190599999999996  3.2644400000000000 18.6372999999999998
  8.8628999999999998  9.2082099999999993 32.4510000000000005
  9.7129799999999999 10.3015000000000008 31.7231999999999985
  7.4482799999999996  8.8608899999999995 35.5754000000000019
  8.1428399999999996 10.1508000000000003 35.1174999999999997
 -0.0463114000000000  8.0373900000000003 20.3082999999999991
  1.2122400000000000  7.1033600000000003 20.1773999999999987
  2.9482900000000001  0.8127970000000000 23.2049999999999983
 -5.2586300000000001 14.0805000000000007 23.5277999999999992
 10.7407000000000004  5.8813300000000002 25.1552000000000007
 10.6645000000000003  7.3339800000000004 25.0303000000000004
  0.7760030000000000 13.6221999999999994 27.9408999999999992
  1.8341900000000000 14.4380000000000006 27.4395999999999987
  4.7121899999999997  2.0242300000000002 28.0488999999999997
  5.8535399999999997  3.0583700000000000 27.6473000000000013
  2.6962000000000002  4.1288900000000002 28.7397999999999989
  2.0649099999999998  3.2605100000000000 27.5540999999999983
 -3.9499499999999999 10.0154999999999994 33.5097000000000023
 -2.9636300000000002 10.7591999999999999 34.3260000000000005
 12.8193000000000001  5.4535200000000001 26.0273000000000003
 13.8038000000000007  4.4302599999999996 26.5137999999999998
  7.0972900000000001  0.0082757700000000 28.6794000000000011
 -0.8552190000000000 14.2004000000000001 30.0155999999999992
  6.0001300000000004  2.8317600000000001 18.1542999999999992
  6.5892099999999996  2.8264000000000000 19.6787999999999990
 -3.4475600000000002 13.8781999999999996 20.5058000000000007
 -5.0066600000000001 14.1050000000000004 20.7214999999999989
 -1.5071900000000000 13.2147000000000006 19.1290000000000013
 -2.7074199999999999 12.4404000000000003 18.4700999999999986
  8.0144300000000008 10.8834000000000000 29.9339000000000013
  8.0800199999999993  9.3085400000000007 29.8204999999999991
  5.0891900000000003  8.8239599999999996 25.6478999999999999
  3.8075399999999999  9.4846400000000006 25.4526000000000003
  5.9668700000000001  7.3341300000000000 38.7952000000000012
  6.4694500000000001  8.6713500000000003 39.4335000000000022
  0.3621050000000000  3.6892999999999998 21.5482000000000014
 -0.8257980000000000  3.7520400000000000 20.5545000000000009
 -3.5693600000000001 14.6059000000000001 16.4173000000000009
  4.6924000000000001  0.4790690000000000 17.9664000000000001
  0.0589626000000000 13.1973000000000003 33.6409999999999982
 -0.4649680000000000 12.9391999999999996 32.1234999999999999
  2.7713299999999998  4.7084400000000004 20.8653000000000013
  2.8477199999999998  3.3158799999999999 21.7110999999999983
  8.0689700000000002  1.8850899999999999 26.2789999999999999
  7.4619099999999996  0.3945600000000000 26.0141999999999989
 10.2917000000000005  6.0197599999999998 28.2196999999999996
  8.8716000000000008  6.4665999999999997 27.8939999999999984
 15.9822000000000006  0.7473790000000000 35.1159999999999997
 15.5902999999999992  0.9993540000000000 36.7569999999999979
 13.7353000000000005  1.7915099999999999 32.3288000000000011
 13.2331000000000003  0.3785530000000000 32.0384999999999991
  7.7089499999999997 14.5899000000000001 33.1522000000000006
  8.2577400000000001 13.5443999999999996 34.1563000000000017
  5.5345000000000004  6.4303600000000003 33.8449000000000026
  4.9594699999999996  5.5124899999999997 34.9859999999999971
  3.4980799999999999 12.7899999999999991 30.4348999999999990
  2.1293500000000001 13.0361999999999991 29.5517000000000003
  5.5533400000000004  7.6943299999999999 21.3821000000000012
  6.7990100000000000  8.1082099999999997 22.2917999999999985
  3.0482200000000002  4.7559800000000001 23.3043000000000013
  1.9770000000000001  5.6658999999999997 23.8634999999999984
 -5.4179300000000001  9.4638700000000000 23.7240000000000002
 -4.4951499999999998  8.0713100000000004 23.6539000000000001
 -0.0831996000000000  8.8219399999999997 33.4346999999999994
 -0.0858527000000000  7.1664199999999996 32.9380000000000024
  0.8953700000000000 11.4970999999999997 39.1308000000000007
  0.6267080000000000 10.1104000000000003 38.8573000000000022
 -1.7794700000000001 11.9185999999999996 20.7006000000000014
 -0.4800060000000000 11.2509999999999994 21.5606000000000009
 -2.2197399999999998  6.9058799999999998 19.9445000000000014
 -1.1422699999999999  6.3568699999999998 20.7990999999999993
  8.6946300000000001  7.0873100000000004 36.1514000000000024
  8.7589000000000006  7.2756200000000000 37.6794999999999973
  0.4243530000000000  1.9372400000000001 36.8166000000000011
  1.5921000000000001  1.5326700000000000 37.6400000000000006
 -1.2570300000000001  8.3636400000000002 27.3906999999999989
 -2.1566100000000001  9.2524099999999994 28.3287000000000013
 -0.2367430000000000 12.0048999999999992 15.8312000000000008
 -1.1964100000000000 12.3562999999999992 14.6782000000000004
 13.1095000000000006  3.7149999999999999 20.5848000000000013
 -1.0957500000000000  8.8398299999999992 30.5381000000000000
  6.7283499999999998  0.5785510000000000 23.0618000000000016
 -3.6853699999999998 13.4109999999999996 23.5672999999999995
  5.4006699999999999  2.6107499999999999 34.3530000000000015
 14.7446999999999999  3.6576499999999998 17.9835999999999991
 -0.8812600000000000  2.3609000000000000 26.7601000000000013
 11.9352999999999998  6.0079500000000001 36.7792000000000030
 13.2522000000000002  2.6083799999999999 29.4508000000000010
  5.1447700000000003 10.9644999999999992 34.8449999999999989
 -1.4970600000000001 11.9682999999999993 30.7208000000000006
 12.4718999999999998  2.7557700000000001 33.3699000000000012
 10.1265000000000001  1.0335399999999999 38.8344999999999985
  7.4867400000000002  0.1239550000000000 18.1415000000000006
 -0.9816859999999999  9.1432900000000004 38.1614000000000004
 -0.5075920000000000  5.0881400000000001 27.6581000000000010
  0.8304130000000000  1.2630399999999999 28.8787999999999982
  7.2435999999999998  9.4535000000000000 23.8301000000000016
 10.4426000000000005  5.4017499999999998 31.8063000000000002
  0.2163670000000000 12.9111999999999991 38.6028999999999982
 -4.8255999999999997 10.2164999999999999 26.7459999999999987
  4.1731299999999996  2.0268099999999998 22.2343000000000011
  9.6136599999999994 12.0888000000000009 37.6957000000000022
  6.4913200000000000 13.6433000000000000 24.7027999999999999
  7.7996999999999996  7.3651900000000001 34.2207000000000008
  0.8871950000000000  8.4821100000000005 16.8816999999999986
  1.6058800000000000  9.9472000000000005 14.8216000000000001