 H  O Pt 
 1.0000000000000000
    16.8689999999999998    0.0000000000000000    0.0000000000000000
    -8.4344999999999999   14.6089825363999992    0.0000000000000000
     0.0000000000000000    0.0000000000000000   41.4780000000000015
   H   O  Pt
 460 230 216
Cartesian
 11.9001000000000001  5.1324600000000000 19.8611000000000004
 10.5366000000000000  4.9257299999999997 20.3719999999999999
  0.1003130000000000 12.4801000000000002 18.9073999999999991
  0.0407140000000000 11.3693000000000008 20.0368999999999993
  4.4067699999999999 11.8025000000000002 24.3837000000000010
  3.2317999999999998 11.0340000000000007 24.9436000000000000
 10.4329000000000001  2.1684899999999998 24.1888000000000005
  9.3576599999999992  3.3338899999999998 24.4950000000000010
 -2.6193700000000000 12.4216999999999995 21.6072999999999986
 -3.0594199999999998 12.9772999999999996 22.8604999999999983
 11.2726000000000006  4.6709500000000004 24.7804000000000002
 12.5241000000000007  4.1770100000000001 24.0224000000000011
  2.8830399999999998  6.4866500000000000 15.5290999999999997
  4.0710400000000000  6.2028400000000001 16.7652000000000001
  2.3280799999999999 14.4309999999999992 25.6570000000000000
  0.7315980000000000 14.1715999999999998 25.7676000000000016
  2.5100699999999998  9.6305599999999991 26.9026999999999994
  2.0268199999999998  8.1820400000000006 26.9985999999999997
  2.4780400000000000  3.4435300000000000 37.7391000000000005
  0.9396520000000000  3.6456499999999998 37.7678000000000011
 -0.0762615000000000  6.7637099999999997 17.5472999999999999
 -1.0626400000000000  5.6068899999999999 17.2818000000000005
 16.1676000000000002  0.0961578000000000 22.3783999999999992
 15.0972000000000008  0.8209280000000000 23.2130000000000010
 -2.1619400000000000 12.2868999999999993 25.0604000000000013
 -3.5362100000000001 11.3777000000000008 24.8228000000000009
  1.4673799999999999  0.3448030000000000 16.0259999999999998
 -6.6896699999999996 14.4537999999999993 17.4177999999999997
  4.3346900000000002  3.9532699999999998 39.8460999999999999
  4.5398899999999998  3.6829800000000001 38.2531000000000034
  6.9621100000000000 10.7904999999999998 39.7655000000000030
  5.8575200000000001 11.4605999999999995 38.8500000000000014
 -0.3889540000000000  1.1799100000000000 19.4241999999999990
  1.1180300000000001  0.9710910000000000 19.9548999999999985
 -3.7076799999999999 10.3526000000000007 32.0795999999999992
 -4.1538700000000004  9.0179500000000008 31.6517000000000017
 -0.6499630000000000  5.8864200000000002 30.8405999999999985
  0.6658890000000000  5.0203899999999999 30.7010000000000005
  6.4130399999999996  9.3156900000000000 38.4767000000000010
  5.1977900000000004  8.2355000000000000 38.2323000000000022
 -3.3191999999999999  6.8226100000000001 29.2774999999999999
 12.6861999999999995  6.5027699999999999 30.4187000000000012
  7.1408699999999996  2.0078200000000002 23.7114000000000011
  7.0316799999999997  2.2408899999999998 25.1154000000000011
 -1.1111800000000001  6.6068300000000004 25.9219000000000008
 -1.1854400000000000  5.3750700000000000 27.0062999999999995
  4.6174299999999997 12.2840000000000007 21.8941000000000017
  4.4563300000000003 13.0524000000000004 23.1863999999999990
  2.8485100000000001  7.9196099999999996 33.1394999999999982
  3.5169400000000000  9.2322900000000008 32.4104000000000028
 11.7455999999999996  6.1631299999999998 35.1980999999999966
 12.2169000000000008  7.0808600000000004 34.0213999999999999
  1.9589200000000000 10.9793000000000003 14.6579999999999995
  0.4428190000000000 11.5891000000000002 14.6982999999999997
 11.3148000000000000  9.1925899999999992 24.9786999999999999
 10.5177999999999994  8.1895299999999995 24.0254000000000012
  3.3096000000000001 10.5765999999999991 21.7907000000000011
  2.6500900000000001  9.8297000000000008 22.9998000000000005
 -3.9528500000000002  8.2290700000000001 15.1353000000000009
 12.5433000000000003  6.9491899999999998 14.2563999999999993
 -3.8473400000000000 13.9832000000000001 31.8697000000000017
 -3.6293400000000000 14.1780000000000008 33.3584000000000032
 14.6356000000000002  0.4866910000000000 17.9281000000000006
 14.9207999999999998  1.8095100000000000 17.1332999999999984
 10.4167000000000005  6.6372700000000000 31.4966000000000008
 10.4283000000000001  5.1200500000000000 31.1981999999999999
  9.7040199999999999  7.6387000000000000 37.4911000000000030
 11.2213999999999992  7.5381000000000000 37.0058999999999969
  6.9559300000000004  1.6037300000000001 27.7733999999999988
  5.4750800000000002  1.0461100000000001 28.0173999999999985
 10.2015999999999991  9.3229500000000005 15.7231000000000005
  9.5652000000000008  8.4794499999999999 16.9151999999999987
 -0.1864370000000000 10.5618999999999996 25.7971000000000004
  0.4007230000000000  9.8198399999999992 26.9692000000000007
  6.7706600000000003 12.7093000000000007 30.9258999999999986
  6.4399800000000003 13.2195999999999998 32.3622000000000014
  4.7432600000000003  1.7842000000000000 20.8890999999999991
  4.9851500000000000  0.1657660000000000 21.1085999999999991
 16.1146999999999991  0.3272130000000000 35.4401000000000010
 14.8085000000000004  0.1379630000000000 35.8397000000000006
  4.8517799999999998  6.9343100000000000 18.8994999999999997
  5.9058500000000000  6.3752599999999999 17.9551000000000016
  0.1655940000000000  5.1033400000000002 34.4059999999999988
  0.0147248000000000  3.8810099999999998 33.4331000000000031
  8.8823699999999999  3.5429300000000001 18.8684000000000012
  9.6318999999999999  4.3333199999999996 17.7062999999999988
  6.4536499999999997  7.3860400000000004 36.4185999999999979
  5.5255500000000000  7.8461600000000002 35.3453000000000017
 -5.3151700000000002 13.3950999999999993 22.8510999999999989
  2.6475900000000001  0.3157510000000000 22.9655999999999985
 13.1738999999999997  6.1742299999999997 37.3659999999999997
 -3.0290300000000001  6.6619200000000003 36.1822000000000017
 15.1007999999999996  0.5272310000000000 27.8927000000000014
  5.9222299999999999 13.8849999999999998 28.4746999999999986
 -3.8047100000000000 10.9899000000000004 18.6781000000000006
 -5.3863399999999997 10.9547000000000008 18.1618999999999993
  7.4946599999999997  5.7932699999999997 35.0403999999999982
  6.9295900000000001  4.3159700000000001 34.5478000000000023
 12.4300999999999995  3.0178099999999999 18.8839000000000006
 13.7820000000000000  2.4001399999999999 18.9434000000000005
  7.8582999999999998 13.5129999999999999 16.9389000000000003
  6.9290000000000003 12.3533000000000008 16.4002000000000017
 -0.6365470000000000  7.6257900000000003 34.0105000000000004
 -0.3676830000000000  6.8624000000000001 35.2546999999999997
 -4.2457500000000001 13.5925999999999991 35.4446000000000012
 -2.6855500000000001 13.4229000000000003 35.3631999999999991
 -1.9390799999999999 10.8063000000000002 34.1901000000000010
 -2.9149900000000000 11.7608999999999995 33.5529999999999973
 12.5853000000000002  0.3039340000000000 30.7729999999999997
 13.8900000000000006  0.6636919999999999 29.8991000000000007
 -2.4994100000000001  7.9704600000000001 24.5548999999999999
 -1.5018300000000000  8.6135999999999999 25.6185000000000009
 -4.6324500000000004 14.4809999999999999 27.4713999999999992
  4.3234100000000000  0.2013860000000000 25.9891000000000005
 10.4581999999999997  1.5731999999999999 34.5429000000000030
 10.8228000000000009  2.8025500000000001 35.4718999999999980
 -1.7456600000000000 10.6395000000000000 37.3329000000000022
 -2.0359799999999999 10.1488999999999994 38.8256000000000014
 -3.9346600000000000 10.6135000000000002 26.9248000000000012
 -2.5701900000000002  9.9573300000000007 26.5116000000000014
  5.6526300000000003 11.7751000000000001 29.2216999999999985
  7.0686299999999997 12.2667000000000002 28.3472000000000008
  3.9135200000000001 10.1227000000000000 35.7835999999999999
  3.8207599999999999  9.0684100000000001 34.5615999999999985
  2.0198499999999999  3.2107999999999999 16.0808000000000000
  2.3393500000000000  4.7606900000000003 16.1932000000000009
  0.6814060000000000  4.7578600000000000 20.5319000000000003
  2.0452699999999999  4.2896900000000002 19.6811000000000007
 -3.9030600000000000  8.9495000000000005 37.8924999999999983
 -4.0016400000000001  8.6238600000000005 39.5046000000000035
 -5.6997299999999997 10.1278000000000006 33.0715000000000003
 -5.8137699999999999  9.9405900000000003 34.4513999999999996
  1.0542100000000001  4.7450500000000000 26.9902000000000015
  1.9695100000000001  3.5017399999999999 27.2099000000000011
  6.7815000000000003 11.8792000000000009 21.1817999999999991
  7.8220599999999996 12.3465000000000007 20.0568999999999988
  7.5458499999999997  0.4537960000000000 15.1234000000000002
 -2.0515200000000000 14.4225999999999992 14.2492000000000001
  6.3660600000000001  9.4686000000000003 25.1936999999999998
  4.9268700000000001  9.2774900000000002 24.9146000000000001
  8.1647300000000005  7.2510500000000002 27.7367999999999988
  6.6786000000000003  7.6108000000000002 27.8665999999999983
  8.7255199999999995  1.5040300000000000 26.7504999999999988
  8.4805799999999998  2.9753900000000000 26.8120000000000012
  4.1916500000000001 12.1945999999999994 39.6906999999999996
  4.4579300000000002 13.3544999999999998 38.5775999999999968
  2.7557600000000000  3.1162800000000002 17.9198999999999984
  3.2219799999999998  2.3464700000000001 19.1734000000000009
  1.7691300000000001  5.4661600000000004 33.4776999999999987
  3.2727400000000002  6.1310599999999997 33.3222000000000023
 -6.3277799999999997 13.4151000000000007 20.0738999999999983
 -5.3868000000000000 14.6417999999999999 20.0098999999999982
 10.4286999999999992  5.0953099999999996 33.5874999999999986
  9.6505200000000002  4.5992199999999999 34.7081000000000017
  2.0076200000000002 12.9802999999999997 34.2852999999999994
  2.0007799999999998 12.7670999999999992 35.9194999999999993
 13.0340000000000007  6.0530799999999996 27.2646000000000015
 -2.7013600000000002  7.1340599999999998 26.9118999999999993
  5.6501799999999998  3.5315799999999999 32.5031000000000034
  4.7177300000000004  4.0454900000000000 33.8271000000000015
  4.8432599999999999  9.9674800000000001 20.2618000000000009
  4.6616499999999998 11.3836999999999993 19.5587000000000018
  5.9435399999999996  6.3300099999999997 24.0633000000000017
  5.3689200000000001  6.6735100000000003 22.6861999999999995
  2.0345700000000000  9.7787699999999997 16.9865999999999993
  3.5326900000000001  9.8548899999999993 16.1700000000000017
 -0.2604120000000000  5.8852700000000002 21.4736000000000011
  0.0210469000000000  7.0675299999999996 22.3830999999999989
  0.9350330000000000  1.6736500000000001 23.0899999999999999
  1.3007599999999999  1.6151400000000000 21.5782999999999987
 10.4052000000000007  7.0039800000000003 19.1584000000000003
  9.0373800000000006  6.4921499999999996 18.6754999999999995
 12.1973000000000003  3.4082100000000000 37.9814000000000007
 13.4817999999999998  2.6154700000000002 37.3228000000000009
  7.7013499999999997  5.2888400000000004 29.3186000000000000
  8.8444199999999995  6.3794000000000004 29.8838000000000008
  8.2892499999999991  8.7331599999999998 39.1895000000000024
  9.6185399999999994  9.0691100000000002 39.9035000000000011
  1.7288600000000001  0.9494350000000000 33.6741999999999990
  3.1321400000000001  0.5913090000000000 33.1454999999999984
  7.6889599999999998  7.4234700000000000 20.6110000000000007
  7.7045500000000002  6.5422000000000002 21.8674999999999997
 -4.9934700000000003 10.3493999999999993 38.0279999999999987
 -4.8899699999999999 11.5626999999999995 37.0360999999999976
 12.7093000000000007  3.6883100000000000 27.7327000000000012
 12.1100999999999992  3.6713700000000000 29.1798999999999999
  1.8597600000000001  6.8780599999999996 18.3196000000000012
  1.1975199999999999  8.1669599999999996 18.8425000000000011
  2.5693600000000001  8.5467099999999991 15.2114999999999991
  1.2280300000000000  7.7323800000000000 15.5671999999999997
  8.5403400000000005  9.9179399999999998 37.3250999999999991
  9.8023100000000003 10.7096999999999998 37.3089000000000013
  4.2180600000000004  2.5263399999999998 36.1805000000000021
  4.1488600000000000  1.6301600000000001 37.4671000000000021
  9.3448300000000000  5.4387100000000004 26.5075000000000003
 10.2767999999999997  4.3262999999999998 27.4011999999999993
  0.4539560000000000  8.6598799999999994 35.7653000000000034
  0.5868890000000000  8.9676899999999993 37.2882000000000033
 -1.7828599999999999  5.6079600000000003 38.4787999999999997
 -1.6848799999999999  3.9593400000000001 38.8260999999999967
  5.3905399999999997  5.3842999999999996 32.5097999999999985
  5.4032000000000000  6.1258900000000001 31.3461999999999996
  9.3041900000000002  1.1545000000000001 16.6369000000000007
  9.4625400000000006  2.3790600000000000 15.6978000000000009
  3.4154399999999998 14.2102000000000004 15.0736000000000008
 10.5132999999999992  0.3775110000000000 14.9046000000000003
  2.6551200000000001  5.8886300000000000 27.6513999999999989
  2.3922900000000000  6.4066999999999998 28.9926999999999992
  7.7392599999999998  4.1736899999999997 36.4769999999999968
  6.5937700000000001  3.7070200000000000 37.5039000000000016
  4.4729000000000001 11.4311000000000007 17.4705000000000013
  4.9323300000000003 12.6395999999999997 18.1348999999999982
  7.1686699999999997  6.6530199999999997 26.2834000000000003
  7.3877199999999998  5.1791999999999998 26.1345999999999989
  2.4980699999999998 12.6636000000000006 17.2855999999999987
  1.8659699999999999 13.2635000000000005 16.0996999999999986
  7.9437699999999998  4.8202400000000001 32.7242999999999995
  7.7912900000000000  6.2311699999999997 32.7665000000000006
 -0.8325830000000000  4.3578599999999996 25.2048999999999985
  0.0505924000000000  3.3037399999999999 24.4587000000000003
 15.6188000000000002  1.5874100000000000 32.9971999999999994
 -0.0224702000000000  2.0064500000000001 32.1372000000000000
  8.8982700000000001  1.7000200000000001 38.9232999999999976
  9.8420400000000008  1.9400599999999999 37.6597000000000008
 -0.6515320000000000  3.0008599999999999 20.0854999999999997
 -0.9486860000000000  4.2120600000000001 19.3161999999999985
 -4.1579400000000000 12.8346000000000000 15.1369000000000007
 -4.1328399999999998 13.8867999999999991 16.3141999999999996
  6.8262999999999998 10.5495999999999999 34.0118000000000009
  5.7038599999999997  9.5367300000000004 34.1895999999999987
  6.3138699999999996  5.5685700000000002 39.3639999999999972
  6.6853600000000002  6.9992700000000001 39.5433000000000021
  8.1507000000000005  9.5869800000000005 19.6286999999999985
  7.2153400000000003 10.5305999999999997 18.7509000000000015
  7.4157000000000002  4.2052699999999996 22.2140999999999984
  8.7273999999999994  4.1462000000000003 21.4318999999999988
 14.1895000000000007  4.4335800000000001 28.6671000000000014
 -1.3284700000000000  4.9275799999999998 29.0887999999999991
  1.3927799999999999  8.9139400000000002 30.6036999999999999
  0.5005890000000000  7.6063200000000002 30.5183000000000000
  9.9723299999999995 11.9027999999999992 35.7991000000000028
 -6.3135199999999996 12.4544999999999995 34.4001000000000019
  1.0072099999999999  0.2304220000000000 39.2451999999999970
  1.6293299999999999  1.6979800000000000 39.4742999999999995
 13.2678999999999991  3.5082300000000002 20.9542999999999999
 14.2156000000000002  4.2521300000000002 21.9857000000000014
 -2.9143300000000001 11.8867999999999991 30.2672999999999988
 -4.4519900000000003 12.1407000000000007 30.7361000000000004
 -0.8057660000000000  8.3731500000000008 14.9699000000000009
 -1.9523900000000001  8.0957500000000007 15.9754000000000005
 11.5282000000000000  0.2415350000000000 17.3907999999999987
 12.4019999999999992  1.5146900000000001 17.2138999999999989
 -4.4676299999999998  8.7365899999999996 35.4923000000000002
 -3.6008499999999999  9.9422599999999992 35.1490999999999971
  4.9646600000000003  8.9533799999999992 17.1316999999999986
  5.7815000000000003 10.1395000000000000 16.2771000000000008
 13.4575999999999993  4.0204300000000002 35.7231000000000023
 13.7230000000000008  4.5932700000000004 34.3190000000000026
 -7.1648699999999996 12.6506000000000007 15.1856000000000009
 -5.8198900000000000 12.6130999999999993 15.1424000000000003
 -3.4095700000000000  7.4052400000000000 22.3054999999999986
 -4.1303400000000003  8.4400499999999994 23.2052000000000014
  5.3143700000000003  4.9917100000000003 29.1651999999999987
  5.6572600000000000  3.7998599999999998 28.2719999999999985
  8.9842800000000000  1.2633099999999999 29.3059000000000012
  0.8037670000000000 14.5378000000000007 28.7393999999999998
 -3.2034099999999999 13.0975000000000001 39.4055000000000035
 -1.9450400000000001 12.1212000000000000 39.3896999999999977
 10.3858999999999995  3.9242400000000002 14.2169000000000008
  9.8474500000000003  4.8202400000000001 15.4184000000000001
 14.4055000000000000  3.8590900000000001 31.7410999999999994
 13.0005000000000006  4.4049100000000001 31.6784999999999997
 10.4463000000000008  0.5161320000000000 21.1736000000000004
 10.9657999999999998  1.6627700000000001 20.3382000000000005
 -2.0932900000000001 11.8680000000000003 19.2175000000000011
 -2.8536299999999999 12.9766999999999992 18.3576000000000015
 -8.3374699999999997 14.3759999999999994 25.8274000000000008
  7.4241000000000001 14.2703000000000007 24.7729999999999997
  4.8334200000000003 14.3672000000000004 20.9022000000000006
 12.7467000000000006  0.3523820000000000 19.6293000000000006
 -1.8857400000000000  6.5731000000000002 32.4930000000000021
 -2.1894399999999998  7.4631800000000004 31.2471999999999994
 -0.6684220000000000 12.0343999999999998 16.4721000000000011
 -1.4365500000000000 12.8864999999999998 15.4862000000000002
  7.6879099999999996 11.4380000000000006 36.2190000000000012
  7.0514599999999996 12.8018000000000001 35.9962999999999980
 -2.2451900000000000 13.9773999999999994 27.0107999999999997
 -0.9428840000000001 13.3889999999999993 27.6034000000000006
  8.8263099999999994  0.3826110000000000 18.8319000000000010
  0.6065710000000000 14.1408000000000005 17.6069999999999993
 -0.7064980000000000 11.9543999999999997 35.8719999999999999
 -0.1749500000000000 10.5393000000000008 35.7991999999999990
  5.3800800000000004  3.3083800000000001 14.6471000000000000
  4.5972099999999996  4.5919400000000001 14.8851999999999993
 11.3619000000000003  1.9488200000000000 32.2460999999999984
 10.0959000000000003  1.2841600000000000 32.4701999999999984
 -3.9524900000000001  7.3460099999999997 17.7246999999999986
 -4.4246900000000000  8.8156300000000005 18.3245000000000005
  7.1404699999999997 11.1991999999999994 14.8210999999999995
  7.9377599999999999 10.2469999999999999 15.7565000000000008
 -1.6577700000000000  7.8185900000000004 37.9986000000000033
 -1.1179699999999999  7.6866300000000001 39.4735999999999976
 14.1220999999999997  2.3882099999999999 25.8735999999999997
 12.5383999999999993  3.1942200000000001 25.8969999999999985
  5.0770400000000002  0.1738770000000000 18.7394999999999996
  6.3971299999999998  0.1985260000000000 17.8151000000000010
 -5.1237300000000001 12.1382999999999992 39.1377000000000024
 -5.4895600000000000 13.7230000000000008 39.2010000000000005
  7.3865499999999997  0.1886390000000000 36.3605999999999980
 -0.9570620000000000 13.7104999999999997 37.3898999999999972
  1.8139400000000001  5.3154500000000002 23.6552000000000007
  1.3160000000000001  4.4519399999999996 22.5006999999999984
  3.1457500000000000  2.5999800000000000 34.1137000000000015
  2.9241000000000001  3.8580800000000002 35.0388999999999982
  1.9385500000000000 -0.0117501000000000 26.5005999999999986
  2.1405500000000002  0.0856918000000000 24.9983000000000004
  2.7558300000000000  2.0134400000000001 30.9777999999999984
  3.0698200000000000  1.7399899999999999 29.5970000000000013
  1.0190100000000000 12.2193000000000005 28.5904999999999987
 -0.1652970000000000 11.4507999999999992 28.1683999999999983
  4.2858999999999998  5.9843000000000002 20.8829999999999991
  3.1587499999999999  7.0765900000000004 20.3661999999999992
 11.4335000000000004  8.3705900000000000 27.3687000000000005
 10.3084000000000007  8.5548099999999998 26.3824000000000005
  9.7427200000000003  6.4929800000000002 23.6613000000000007
  8.7488799999999998  6.5107499999999998 24.8261000000000003
 -1.5223300000000000  5.0050299999999996 14.8986999999999998
 -2.8175699999999999  5.7310699999999999 15.5114999999999998
  0.0873111000000000  1.2733300000000001 29.6641000000000012
 16.6360999999999990  0.0907499000000000 30.5232999999999990
 14.2867999999999995  1.8084600000000000 39.5859000000000023
 15.5508000000000006  1.4347200000000000 38.7261999999999986
 -6.4847700000000001 13.9652999999999992 29.4140000000000015
 -5.9440099999999996 13.0939999999999994 28.2834000000000003
 -3.5921500000000002  6.8406200000000004 19.7311000000000014
 -2.3561899999999998  5.9605600000000001 20.2095999999999982
 -0.0679227000000000  8.6503999999999994 20.3517000000000010
 -0.7913270000000000  8.6431400000000007 18.9825000000000017
 -2.8859599999999999 10.4671000000000003 15.1616999999999997
 -3.6837700000000000 10.0818999999999992 16.3945000000000007
 11.6440000000000001  0.2993600000000000 38.7263000000000019
 13.1539000000000001  0.6199820000000000 38.4162999999999997
 -5.4972500000000002 11.0786999999999995 29.0746000000000002
 -5.7495799999999999 10.6060999999999996 27.6794000000000011
  5.5488600000000003  2.2465500000000000 30.3766999999999996
  5.3878000000000004  1.6308400000000001 31.8359999999999985
  0.4654710000000000  6.5365700000000002 39.9142000000000010
  1.6431100000000001  5.3083600000000004 39.6923999999999992
  2.3763299999999998 10.6054999999999993 37.1139000000000010
  3.3894700000000002 11.6945999999999994 37.3408000000000015
  5.3197099999999997  3.5201500000000001 22.6090000000000018
  3.8557299999999999  3.4523400000000000 22.1492000000000004
  7.7454799999999997  8.6475700000000000 33.5555000000000021
  9.0437399999999997  8.2359500000000008 34.0812000000000026
  1.9085000000000001  5.1643299999999996 37.1522999999999968
  2.2625700000000002  5.6245700000000003 35.8248000000000033
 15.9885999999999999  0.3345310000000000 15.4492999999999991
 15.2662999999999993  0.9961410000000001 14.3233999999999995
  3.3384700000000000  6.9780499999999996 38.5587999999999980
  3.5191499999999998  7.5494800000000000 37.1460999999999970
  4.5795700000000004 10.3446999999999996 26.9302999999999990
  4.3258099999999997  9.5013000000000005 28.1275000000000013
  5.7078300000000004  2.5574300000000001 16.3489000000000004
  5.9755900000000004  1.4874300000000000 15.5184999999999995
  2.1090800000000001  9.4175000000000004 39.4954999999999998
  0.8957970000000000 10.3156999999999996 39.5563000000000002
  0.9928460000000000 12.8788000000000000 38.8158999999999992
  0.5327440000000000 14.3856999999999999 38.8594999999999970
 12.9722000000000008  0.2441390000000000 26.8618999999999986
  4.0918599999999996 13.3605999999999998 25.9781000000000013
 -1.3335200000000000 11.4397000000000002 31.7829000000000015
 -0.4282360000000000 11.6481999999999992 30.4959999999999987
  2.2547899999999998 10.8759999999999994 33.5260000000000034
  0.8915060000000000 11.4872999999999994 32.8793000000000006
  5.1511300000000002  3.8626900000000002 18.4269999999999996
  6.8703700000000003  3.8879800000000002 18.2512000000000008
 11.8861000000000008  5.6718500000000001 39.4328000000000003
 10.9042999999999992  5.9762000000000004 38.3956000000000017
  2.6928200000000002  5.3362600000000002 25.4637999999999991
  3.7185100000000002  5.9070999999999998 24.3070999999999984
 10.3999000000000006  4.5552099999999998 22.7965000000000018
 11.5120000000000005  5.4198599999999999 22.9035000000000011
 -0.4750310000000000  2.3354599999999999 26.5316000000000010
 -0.9821450000000000  2.7044999999999999 27.8398000000000003
 13.9246999999999996  0.3017030000000000 33.8481999999999985
 14.2027999999999999  0.6519950000000000 32.1936999999999998
  3.1834799999999999 11.8378999999999994 27.9766000000000012
  2.9820600000000002 13.3882999999999992 27.9883999999999986
 -0.7470010000000000  4.7801299999999998 37.2582999999999984
 -1.3409100000000000  4.5849200000000003 35.7725000000000009
  7.9900300000000000  8.8323900000000002 24.1743999999999986
  7.8980499999999996  9.8185599999999997 22.9710000000000001
  2.8828999999999998  3.9955400000000001 29.9483999999999995
  3.6960700000000002  5.2651599999999998 30.5935999999999986
 -1.3969300000000000  9.9090299999999996 21.1006999999999998
 -2.1833200000000001 10.0153999999999996 22.4741000000000000
  6.4571100000000001  0.7828780000000000 39.5955999999999975
  6.2126999999999999  1.5732900000000001 38.3810000000000002
 -6.4650800000000004 11.7505000000000006 24.6833999999999989
  9.3258299999999998 10.7560000000000002 24.8964999999999996
  3.4797799999999999 12.4172999999999991 30.0680000000000014
  3.0914999999999999 12.6835000000000004 31.6459000000000010
 13.5595999999999997  2.1899199999999999 22.5381999999999998
 12.9199000000000002  1.3117500000000000 23.7417000000000016
  5.8184199999999997 13.4894999999999996 15.5904000000000007
  5.3850699999999998 13.6798999999999999 14.2653999999999996
  8.1774000000000004  3.6017100000000002 30.6355000000000004
  7.6199599999999998  2.2120199999999999 30.7460999999999984
  8.7169500000000006 11.7812999999999999 26.8278999999999996
  7.7317499999999999 13.0444999999999993 26.4314000000000000
  5.3038600000000002 10.0696999999999992 32.0568999999999988
  4.0695899999999998 11.0531000000000006 31.4712999999999994
  2.8282699999999998  8.0767299999999995 23.7920000000000016
  2.6179899999999998  8.8085599999999999 25.1631000000000000
  0.1535720000000000 13.6570999999999998 32.7790999999999997
 -0.4281560000000000 13.9168000000000003 34.1826000000000008
  9.9503500000000003 11.6654999999999998 21.5667000000000009
 -5.3347899999999999 11.3742999999999999 21.5747000000000000
 -0.0120632000000000  3.3077200000000002 13.9796999999999993
  0.5463519999999999  4.3193599999999996 14.9940999999999995
 12.0505999999999993  0.9367670000000000 35.4059000000000026
  4.0829599999999999 14.1115999999999993 35.1375000000000028
 11.9187999999999992  3.2598600000000002 15.7181999999999995
 13.4953000000000003  2.6929599999999998 15.2492999999999999
  2.2526299999999999 12.5283999999999995 22.4909999999999997
  1.5539400000000001 13.7468000000000004 23.3752999999999993
 -6.7235899999999997 12.9059000000000008 31.8428000000000004
  9.6805299999999992 11.5975000000000001 31.2220000000000013
  7.8447800000000001 14.1963000000000008 37.6347999999999985
  7.5254300000000001 13.4202999999999992 38.9221999999999966
  9.0089000000000006  8.1051300000000008 31.8770999999999987
 10.0033999999999992  8.4794099999999997 30.7234000000000016
 -1.1189100000000001  9.3104700000000005 29.8427000000000007
 -2.0897600000000001  9.7674599999999998 28.6535000000000011
  4.9252599999999997  7.8017599999999998 29.7251000000000012
  4.0542100000000003  7.0394199999999998 28.6083999999999996
  0.3454200000000000  2.5372800000000000 35.4523999999999972
  1.3334800000000000  1.9796499999999999 36.5230999999999995
  6.1513099999999996  7.8308400000000002 15.1704000000000008
  6.1458599999999999  6.1386000000000003 15.0563000000000002
 -0.8357160000000000 11.1731999999999996 23.8630999999999993
  0.5216260000000000 10.5710999999999995 23.2818000000000005
 -6.4697300000000002 14.3707999999999991 37.1144000000000034
 -5.1097500000000000 13.8094000000000001 36.8855000000000004
 -6.6197299999999997 11.8203999999999994 17.2609999999999992
  9.2365999999999993 10.9380000000000006 18.4117999999999995
 10.7428000000000008  2.2803200000000001 30.4066000000000010
 12.2560000000000002  2.0430000000000001 30.2119999999999997
  8.8226800000000001  6.8798500000000002 15.6097999999999999
 10.1510999999999996  6.7856800000000002 14.9933999999999994
 -1.3584200000000000 14.4918999999999993 22.0228999999999999
  8.4513200000000008  0.2419560000000000 22.8003000000000000
  3.6392799999999998  2.1640600000000001 24.5420000000000016
  4.9078099999999996  2.6354400000000000 25.2047999999999988
  8.2300900000000006  3.8261599999999998 38.8740000000000023
  9.6860199999999992  4.3891400000000003 39.4337000000000018
 -7.6753499999999999 13.7428000000000008 34.3708000000000027
  8.3654700000000002 13.9923999999999999 33.1011999999999986
  1.8765400000000001  1.5327599999999999 14.2027999999999999
  2.8255499999999998  0.7581500000000000 14.8917999999999999
 11.1082999999999998  4.6634799999999998 19.6657000000000011
 -0.1270560000000000 11.5519999999999996 19.0530000000000008
  3.7743500000000001 11.8681999999999999 25.1417999999999999
 10.1463000000000001  3.0580599999999998 24.0074000000000005
 -2.8363600000000000 13.2927999999999997 21.9646000000000008
 12.3138000000000005  4.6397300000000001 24.8643999999999998
  3.4609299999999998  5.7635899999999998 15.9570000000000007
  9.8069900000000008  0.0675253000000000 25.3002000000000002
  1.8286300000000000  9.0068900000000003 26.5427999999999997
  1.6935400000000000  3.0370400000000002 38.0202000000000027
 -0.5843350000000000  6.0729199999999999 18.0036999999999985
 16.0012000000000008  0.3488410000000000 23.2968000000000011
 -2.7584100000000000 11.8360000000000003 24.3957000000000015
 -7.3624000000000001 14.3064000000000000 16.6903000000000006
  4.6814499999999999  4.3374899999999998 39.0058999999999969
  6.7558999999999996 10.9979999999999993 38.7460000000000022
  0.2746330000000000  1.3765900000000000 20.1706000000000003
 -4.5289200000000003  9.9323499999999996 31.8503000000000007
 -0.1040680000000000  5.4479699999999998 30.2089999999999996
  6.2496900000000002  8.3228000000000009 38.2571999999999974
 -3.5637099999999999  7.1887200000000000 30.1477000000000004
  6.8660100000000002  2.7217899999999999 24.2837999999999994
 -0.6439020000000000  5.6934100000000001 26.2222000000000008
  5.1267899999999997 12.6829000000000001 22.6054999999999993
  2.8468300000000002  8.9167000000000005 33.1071000000000026
 12.3645999999999994  6.8899600000000003 34.9530000000000030
  1.4235700000000000 11.7394999999999996 14.4710000000000001