 H  O Pt 
 1.0000000000000000
    16.8689999999999998    0.0000000000000000    0.0000000000000000
    -8.4344999999999999   14.6089825363999992    0.0000000000000000
     0.0000000000000000    0.0000000000000000   41.4780000000000015
   H   O  Pt
 460 230 216
Cartesian
 -3.7348699999999999 10.8169000000000004 35.7777000000000029
 -3.1981700000000002 11.9853000000000005 36.5437000000000012
  5.7580200000000001 14.0655999999999999 21.4622999999999990
 13.2462000000000000  0.1229580000000000 22.4908000000000001
  7.6582999999999997  7.1662499999999998 28.5730000000000004
  7.5238699999999996  7.9969299999999999 27.3180000000000014
  8.8861799999999995  8.4317399999999996 39.8793999999999969
  8.9728999999999992  8.2887100000000000 38.2595999999999989
  6.3119100000000001  9.3713300000000004 28.5320000000000000
  4.8473899999999999 10.0814000000000004 28.5004999999999988
  1.6137200000000000  4.2848699999999997 14.6403999999999996
  0.2299580000000000  4.8124700000000002 15.0078999999999994
  8.9008800000000008  7.1832799999999999 21.8235999999999990
  9.5271600000000003  6.1538700000000004 20.7584000000000017
 10.7668999999999997  4.4572599999999998 33.1064000000000007
 10.5739999999999998  4.6225199999999997 34.7124000000000024
 15.6893999999999991  0.5602690000000000 32.2132999999999967
  7.4593200000000000 13.9672000000000001 33.1201999999999970
 -3.1940499999999998  6.4917299999999996 32.7879000000000005
 -2.0807400000000000  5.7803000000000004 32.0506999999999991
  5.7948000000000004  1.2877799999999999 31.0743000000000009
  4.6224600000000002  2.1514600000000002 31.4556000000000004
  8.2471800000000002  3.4162200000000000 38.8652000000000015
  7.4028900000000002  4.0588499999999996 39.7640000000000029
 -1.2165200000000000 12.2695000000000007 37.3012999999999977
 -1.0634399999999999 12.4829000000000008 35.6777999999999977
 -2.3413800000000000  7.3002099999999999 18.2948999999999984
 -2.2929700000000000  8.9432799999999997 17.7410999999999994
  9.3191400000000009  1.0512500000000000 36.8156000000000034
 10.3823000000000008  0.8102410000000000 35.8256999999999977
 -1.7012200000000000 10.9052000000000007 21.2652000000000001
 -2.7900000000000000 10.7826000000000004 19.9618000000000002
  7.9477700000000002  6.9523500000000000 25.5707999999999984
  8.5678099999999997  8.1338000000000008 25.2657999999999987
  9.4372799999999994 10.1112000000000002 36.2809999999999988
  9.9721600000000006  8.6742100000000004 35.9091999999999985
 15.9824999999999999  0.9407030000000000 39.8179000000000016
  0.4383050000000000  1.2724200000000001 38.7781999999999982
 13.5315999999999992  0.8465520000000000 36.5206999999999979
  5.2218400000000003 13.9138999999999999 36.3498999999999981
 -1.0327800000000000 12.8686000000000007 19.9606999999999992
 -0.5422620000000000 13.0871999999999993 18.6109000000000009
  5.7585699999999997 11.5058000000000007 16.7523000000000017
  6.0294299999999996 12.1506000000000007 18.1239999999999988
 -7.5910200000000003 14.0229999999999997 19.9904000000000011
 -8.1652600000000000 14.4015000000000004 18.5213000000000001
 -1.2607400000000000 12.7893000000000008 25.2508000000000017
  0.1941500000000000 13.0320000000000000 25.4497999999999998
 -4.0281799999999999  7.2080599999999997 21.4651999999999994
 -3.2435800000000001  8.3610600000000002 20.7073000000000000
 10.3966999999999992  9.3070100000000000 32.1495000000000033
 10.0671999999999997  9.9527400000000004 30.7762999999999991
  0.8863259999999999  5.2664799999999996 21.9355000000000011
 -0.5981109999999999  5.1202500000000004 22.6879999999999988
  1.8139000000000001 13.9817999999999998 26.2593999999999994
  1.1193700000000000 13.4465000000000003 27.5255000000000010
 -5.3090999999999999 13.8478999999999992 14.7362000000000002
  4.3005399999999998  0.0950090000000000 15.1888000000000005
 -0.0465258000000000 13.1936999999999998 15.2879000000000005
  1.3386800000000001 13.8522999999999996 14.9253000000000000
  4.5177800000000001  9.2384100000000000 33.7045999999999992
  5.9819100000000001  9.8217900000000000 34.0060000000000002
 12.9463000000000008  5.6142300000000001 19.0715000000000003
 -2.7452299999999998  5.1099500000000004 18.1709999999999994
  9.5521899999999995  5.3216400000000004 36.5548000000000002
  9.7031200000000002  3.7474300000000000 36.4697999999999993
  0.8096830000000000  7.8918900000000001 33.9425000000000026
  0.0293083000000000  8.2340699999999991 35.2357000000000014
  7.7425199999999998  2.1661899999999998 15.2077000000000009
  6.3861400000000001  2.9059200000000001 14.8597999999999999
 10.3579000000000008 10.0759000000000007 18.3961000000000006
 -5.9719499999999996 11.3546999999999993 17.9141000000000012
 13.5375999999999994  0.9101290000000000 28.9594999999999985
 14.6620000000000008  1.8828900000000000 29.1926999999999985
  6.1268099999999999  1.3305300000000000 23.4163999999999994
  4.7190799999999999  1.6724300000000001 22.5705999999999989
  4.9697699999999996  7.6852499999999999 14.4263999999999992
  4.5071399999999997  8.3250299999999999 15.7202999999999999
 -4.7848600000000001 12.3690999999999995 37.9147999999999996
 -5.1989700000000001 11.0228999999999999 38.8635000000000019
 12.7607999999999997  1.8490899999999999 21.2735999999999983
 11.7588000000000008  1.0618399999999999 20.3632999999999988
  1.9147099999999999  8.2228899999999996 29.6652999999999984
  3.2796699999999999  7.6936499999999999 29.9075999999999986
 -0.1720210000000000 10.0562000000000005 22.7305999999999990
 -0.6377000000000000 11.3207000000000004 23.5452000000000012
 -1.5356799999999999  3.3808400000000001 21.6148999999999987
 14.6098999999999997  3.6616800000000000 23.1859000000000002
 -3.4086599999999998 11.7020999999999997 27.0573000000000015
 -2.1464799999999999 10.8336000000000006 26.2667000000000002
  9.6490799999999997  2.9995099999999999 30.8815999999999988
 10.8911999999999995  2.6216100000000000 31.7313000000000009
 12.5576000000000008  5.1325599999999998 37.2389999999999972
 12.0353999999999992  4.7076099999999999 35.9288000000000025
 11.6773000000000007  1.9241800000000000 23.3774000000000015
 12.1648999999999994  3.1831700000000001 22.7593999999999994
  7.2246100000000002 10.9414999999999996 14.9038000000000004
  8.2907100000000007  9.7495300000000000 15.2667000000000002
  0.4618850000000000  6.9438599999999999 39.2571999999999974
  1.1206000000000000  7.4984500000000001 38.0880999999999972
 -7.0904600000000002 14.1098999999999997 22.7531999999999996
  8.7325700000000008 13.5107999999999997 23.7911000000000001
 -0.3581840000000000 12.1097000000000001 39.1169999999999973
 -1.3555600000000001 10.9445999999999994 38.8494999999999990
 -1.9008900000000000  5.1109700000000000 36.3406999999999982
 -0.9565540000000000  6.2571700000000003 35.7785999999999973
 -0.4161380000000000  5.5669899999999997 26.5252000000000017
  1.0245500000000001  4.8291100000000000 26.5025000000000013
  7.1353000000000000  4.7730100000000002 28.3392000000000017
  7.0622100000000003  5.1463099999999997 29.8062000000000005
 -2.0316000000000001  4.4238200000000001 14.5279000000000007
 -0.9314560000000000  3.4155400000000000 14.9286999999999992
 -0.7024370000000000 10.9681999999999995 31.3253999999999984
 -0.9475460000000000 12.5778999999999996 31.8006999999999991
  1.4819000000000000  7.9875600000000002 20.4481000000000002
  2.0420500000000001  8.0259599999999995 21.9696999999999996
 -7.1483600000000003 14.0004000000000008 27.8321000000000005
 -7.2486600000000001 14.2262000000000004 29.3850000000000016
  3.9276599999999999  4.3708700000000000 23.5806000000000004
  4.5444199999999997  5.4870000000000001 24.4827000000000012
 13.3908000000000005  0.8622360000000000 17.5381999999999998
 13.2855000000000008  1.6943999999999999 18.8142999999999994
 -2.0102099999999998  8.5717599999999994 23.9469999999999992
 -3.5212900000000000  8.7800399999999996 24.3741999999999983
 -0.1532640000000000  4.1631499999999999 30.9601000000000006
  0.8001670000000000  4.4801799999999998 29.8416999999999994
  6.0272100000000002 13.2393000000000001 29.1270999999999987
  5.0402800000000001 13.1473999999999993 28.0803000000000011
  3.9991900000000000 12.4882000000000009 30.6263000000000005
  3.2004100000000002 13.6231000000000009 31.2859000000000016
  5.1666800000000004 11.0191999999999997 37.0882000000000005
  4.9447599999999996 10.8048000000000002 35.5561000000000007
 10.8080999999999996  0.4156100000000000 24.0825999999999993
  9.9394399999999994  0.3440890000000000 22.8339999999999996
 -6.0901699999999996 11.4474999999999998 34.4872999999999976
 10.3223000000000003 11.1214999999999993 33.0767999999999986
  2.3535200000000001 13.7271999999999998 20.7933999999999983
  1.4045099999999999 14.5366000000000000 20.0812999999999988
  2.4385699999999999 12.3294999999999995 18.1473000000000013
  1.7651500000000000 11.3590000000000000 17.5461999999999989
 11.3049999999999997  6.5977899999999998 34.9836000000000027
 12.7942999999999998  6.6980800000000000 35.3528999999999982
 -1.8552599999999999 12.8049999999999997 14.7378999999999998
 -1.6578800000000000 11.1925000000000008 14.5815000000000001
 13.2667000000000002  5.5186200000000003 38.9269999999999996
 12.6332000000000004  6.7679499999999999 39.6349000000000018
  4.3376299999999999  2.9582700000000002 18.9267000000000003
  3.6960799999999998  2.0565799999999999 20.1754999999999995
  2.6848399999999999  5.4139499999999998 35.3917000000000002
  2.5676199999999998  6.9038100000000000 34.7199999999999989
 -0.4932610000000000  1.4792600000000000 19.9228999999999985
 -0.4761080000000000  3.1133299999999999 19.7314000000000007
  5.7988600000000003  8.2936399999999999 39.0315000000000012
  5.2980900000000002  6.9783600000000003 39.4153999999999982
  5.5113599999999998  4.8315099999999997 31.7663000000000011
  6.4293399999999998  3.6528100000000001 31.3004999999999995
  6.2869200000000003 14.2459000000000007 25.1406999999999989
 14.8097999999999992  0.8607480000000000 26.1771999999999991
  7.1992200000000004  6.8326599999999997 15.3804999999999996
  7.0050999999999997  5.8898099999999998 14.3033000000000001
  2.8745099999999999  0.3156120000000000 25.9808999999999983
 -6.3702800000000002 13.8544000000000000 25.2945999999999991
  6.8960699999999999  9.9697700000000005 17.4234000000000009
  6.6252899999999997  8.6958599999999997 16.6921999999999997
 -1.1433800000000001  9.0196199999999997 25.8597999999999999
  0.0962521000000000  9.9420199999999994 25.7131000000000007
 -0.4251570000000000  6.6908300000000001 30.4058999999999990
 -1.2286200000000000  7.9649099999999997 30.3523999999999994
 10.6906999999999996  4.1562500000000000 29.4765000000000015
  9.0343999999999998  4.3193799999999998 29.0654000000000003
 10.2669999999999995  4.5921799999999999 23.4966000000000008
  9.8974200000000003  3.5304799999999998 22.3912000000000013
 10.7317999999999998 -0.0287821000000000 33.7081000000000017
  9.2951999999999995  0.7672260000000000 33.8066000000000031
 -5.6742200000000000 13.4250000000000007 30.7820000000000000
 -7.0429500000000003 13.7919999999999998 31.4822999999999986
 -7.3388200000000001 13.4082000000000008 16.4817999999999998
  8.1382899999999996 13.0976999999999997 17.2071000000000005
  3.1424599999999998  2.0147200000000001 27.2631000000000014
  4.1230900000000004  1.2005800000000000 28.2472999999999992
  6.4580200000000003  3.2610800000000002 26.2942000000000000
  5.8199699999999996  3.7926500000000001 24.9017000000000017
 10.4248999999999992  9.2639899999999997 28.2095999999999982
  9.4373000000000005  8.5038800000000005 29.0056000000000012
  4.9410900000000000  0.8073620000000000 18.6543999999999990
 -2.2049599999999998 14.3539999999999992 18.7519999999999989
 11.6790000000000003  5.1049699999999998 21.2773000000000003
 13.2809000000000008  4.8780799999999997 21.3970999999999982
  7.1188900000000004  5.6032599999999997 16.7452000000000005
  6.7620600000000000  6.0904800000000003 18.2655999999999992
 -2.9418099999999998  7.8693400000000002 38.3059999999999974
 -1.4289700000000001  8.1046800000000001 38.4825000000000017
 -0.4245460000000000  4.8496400000000000 38.2278999999999982
  0.5389550000000000  4.3598900000000000 39.2877000000000010
 -3.8094999999999999 12.7068999999999992 24.8372999999999990
 -3.9194599999999999 13.5551999999999992 23.5380000000000003
  2.1647300000000000  0.7441960000000000 38.0407000000000011
  3.1914899999999999  0.6909130000000000 39.0105000000000004
 12.8501999999999992  0.5825300000000000 32.8644999999999996
  4.6376900000000001 14.2390000000000008 34.0619000000000014
  9.2504299999999997 11.8301999999999996 15.0808000000000000
 -6.1662200000000000 11.4311000000000007 14.9602000000000004
  2.5493600000000001  8.3337500000000002 17.7106999999999992
  3.1841599999999999  9.6340500000000002 17.0215999999999994
  7.9303900000000001  3.9901399999999998 18.5153999999999996
  8.2513600000000000  2.8885999999999998 19.4693000000000005
  0.0244946000000000  1.2667299999999999 28.8131999999999984
 -0.1792800000000000  2.8075199999999998 29.3310999999999993
 -0.9693500000000000  2.9392900000000002 32.9455000000000027
  0.4417180000000000  2.3926900000000000 32.8530000000000015
  1.0719700000000001  4.8396800000000004 17.1543999999999990
 -0.2864420000000000  4.9244700000000003 18.0117000000000012
  3.2790699999999999 14.3224999999999998 18.2884999999999991
  3.6760799999999998 14.0587000000000000 16.7556000000000012
  3.7321399999999998 14.1698000000000004 14.4209999999999994
 12.3585999999999991  0.9300450000000000 15.1956000000000007
  0.5684470000000000  7.4907800000000000 25.1529999999999987
  1.1652100000000001  6.5156499999999999 24.1043999999999983
 -4.5567399999999996 10.8663000000000007 31.2833000000000006
 -3.2172800000000001 10.4720999999999993 30.5518999999999998
 11.4364000000000008  2.6572499999999999 27.1690000000000005
 12.8962000000000003  2.4065500000000002 27.6648999999999994
 11.4838000000000005  5.5438400000000003 38.7912999999999997
 10.7669999999999995  4.1117699999999999 38.9179999999999993
 -2.6730900000000002 11.3949999999999996 17.8597000000000001
 -4.0150600000000001 10.3673000000000002 17.8218999999999994
  8.9947900000000001  0.9392530000000000 18.3264999999999993
  0.5006920000000000 14.5389999999999997 17.1507000000000005
 -4.6552899999999999  9.0106199999999994 22.5896000000000008
 -5.4687799999999998  9.5395800000000008 23.7921000000000014
 -2.7008700000000001 13.6649999999999991 32.4256999999999991
 -2.5494100000000000 13.7603000000000009 30.8673000000000002
  3.5335200000000002  2.0069200000000000 33.6846000000000032
  4.5478100000000001  2.3952700000000000 35.0758999999999972
 11.7636000000000003  6.1528600000000004 25.3598999999999997
 11.6759000000000004  4.6599599999999999 25.5542000000000016
  7.5818099999999999  2.8963800000000002 21.5582999999999991
  6.7482400000000000  1.7375300000000000 20.9630000000000010
  3.1691099999999999  4.6295700000000002 18.5516000000000005
  4.6703400000000004  5.0423499999999999 18.3748000000000005
  7.7131999999999996  2.7745199999999999 34.3252999999999986
  7.9723699999999997  4.1919399999999998 35.0932999999999993
  5.5327200000000003  2.1105299999999998 37.9639000000000024
  5.4011600000000000  1.7169099999999999 39.4694000000000003
  5.6201200000000000 13.9457000000000004 19.2360000000000007
  7.0799500000000002 14.1775000000000002 19.6076000000000015
  5.7250800000000002 10.6532000000000000 30.4220000000000006
  6.2878299999999996 10.7710000000000008 31.9189000000000007
  2.6125099999999999 11.0962999999999994 34.3006000000000029
  3.2098399999999998 11.5973000000000006 32.9378000000000029
  6.1955999999999998  0.6366140000000000 15.1707999999999998
 -2.7433399999999999 14.3230000000000004 16.4807999999999986
  7.9218000000000002 11.7300000000000004 39.5998000000000019
  8.1564700000000006 10.2017000000000007 39.2128999999999976
  2.6713499999999999 10.7913999999999994 19.8275000000000006
  2.8100399999999999  9.7226800000000004 21.0466000000000015
 13.8261000000000003  2.9735000000000000 37.1659000000000006
 15.1623000000000001  2.2941199999999999 37.6736999999999966
 -0.0415852000000000  8.1858599999999999 18.4941999999999993
  0.9179880000000000  6.8452200000000003 18.3915000000000006
 -5.2114599999999998 13.7507000000000001 16.9269999999999996
 -4.4209600000000000 13.5875000000000004 18.2693000000000012
  2.8731499999999999 12.3048999999999999 37.5371000000000024
  2.8891499999999999 11.5457999999999998 39.0305000000000035
 -0.0628567000000000  0.6217430000000000 15.8478999999999992
 15.9675999999999991  1.0292800000000000 14.6097000000000001
  1.4016200000000001  9.3039000000000005 38.9673999999999978
  0.8337990000000000 10.7492999999999999 39.2862999999999971
  8.8118599999999994  6.0903499999999999 17.8702000000000005
 10.2586999999999993  5.6060900000000000 18.3191999999999986
  1.6389100000000001  6.4917400000000001 15.1010000000000009
  2.4224199999999998  7.7502199999999997 15.6309000000000005
 13.1250000000000000  6.4415600000000000 15.3206000000000007
 12.6927000000000003  5.9458000000000002 16.6658000000000008
  8.0487500000000001  6.6752399999999996 36.8385999999999996
  8.4085900000000002  6.0463899999999997 38.2850999999999999
  8.3513300000000008  9.0227199999999996 18.3405999999999985
  9.2015600000000006  7.9281699999999997 19.0730000000000004
  5.8389899999999999 11.8396000000000008 20.5914999999999999
  4.7610799999999998 10.7294000000000000 20.6104999999999983
  9.3069500000000005 10.8912999999999993 26.9630000000000010
 10.4717000000000002 10.6658000000000008 25.9484999999999992
 12.9993999999999996  3.1218599999999999 39.4061000000000021
 14.4486000000000008  3.6225100000000001 39.6544999999999987
  6.0286200000000001  0.5287500000000001 25.8829999999999991
  4.9658400000000000  0.7139720000000001 24.8591000000000015
  2.8761399999999999  3.3695700000000000 25.5838999999999999
  1.3496900000000001  2.6622400000000002 25.6376999999999988
  3.0835100000000000 11.3666000000000000 15.6288999999999998
  1.5538099999999999 12.1480999999999995 15.6899999999999995
  2.8234800000000000  4.7747599999999997 30.1859999999999999
  3.2928899999999999  3.4440200000000001 29.3552000000000000
  4.0306899999999999  3.5764000000000000 15.1585999999999999
  4.7998599999999998  3.9586399999999999 16.4086999999999996
  6.9476899999999997  8.2498600000000000 31.0171999999999990
  6.4644899999999996  7.9900599999999997 32.4031999999999982
 12.4771000000000001  7.4802600000000004 31.2140999999999984
 11.6085999999999991  7.7371900000000000 29.8035999999999994
  9.9426600000000001 11.2825000000000006 23.4481000000000002
 -5.4818499999999997 11.8111999999999995 23.7991999999999990
  7.6756399999999996  1.0103400000000000 32.4981999999999971
  8.8160699999999999  2.1845400000000001 32.4168999999999983
 -3.7132100000000001 13.3344000000000005 28.7279000000000018
 -2.4223499999999998 14.2296999999999993 28.3441000000000010
  5.5887799999999999  6.9544699999999997 19.7606999999999999
  5.3378199999999998  7.5714499999999996 18.4234000000000009
 -3.4479799999999998  8.3899799999999995 29.4122999999999983
 -2.2556500000000002  8.8254699999999993 28.4488999999999983
  7.6765200000000000  5.6876300000000004 33.6407999999999987
  7.1307700000000001  6.2435600000000004 35.0527000000000015
 10.8870000000000005  8.8514700000000008 15.1738000000000000
 -5.5929200000000003  9.8190500000000007 16.3622000000000014
  2.2709299999999999  2.6469600000000000 31.5226000000000006
  2.5824900000000000  1.0839799999999999 32.0313999999999979
 -1.7172700000000001  7.8462899999999998 22.2012999999999998
 -0.3167310000000000  7.6570000000000000 22.9592999999999989
 11.2543000000000006  3.5423399999999998 19.1594000000000015
  9.9599399999999996  3.5445199999999999 18.3780000000000001
 -0.6817670000000000  2.4291499999999999 24.7833000000000006
  0.2989860000000000  1.0885199999999999 24.6435999999999993
  1.1310199999999999 11.9117999999999995 35.7150999999999996
  2.1110899999999999 10.6468000000000007 35.8522999999999996
  9.3106899999999992  5.4809299999999999 25.7885999999999989
  7.7590100000000000  4.8908699999999996 25.5065999999999988
 -1.9125700000000001  3.6800899999999999 16.9026999999999994
 14.8590999999999998  2.9538300000000000 18.3013000000000012
  9.8202400000000001  6.8074599999999998 15.4535000000000000
  9.6335099999999994  7.5425599999999999 16.7454999999999998
  3.1421999999999999  7.2017699999999998 36.9846000000000004
  3.6034000000000002  8.6571400000000001 37.0146000000000015
  4.9401500000000000  6.1832500000000001 35.9682000000000031
  5.7535800000000004  6.8107699999999998 37.2832000000000008
 -2.6888800000000002  6.9427199999999996 25.9899999999999984
 -2.7721399999999998  6.0338200000000004 27.3262999999999998
  9.3530300000000004  3.5755100000000000 15.9214000000000002
  9.6571499999999997  2.3365700000000000 15.2009000000000007
  4.8650000000000002 10.2170000000000005 15.0733999999999995
  4.7518500000000001 11.6341999999999999 14.5868000000000002
  1.0903400000000001  8.8259000000000007 14.6950000000000003
  1.1768900000000000 10.2984000000000009 14.8907000000000007
  4.5681399999999996 13.0276999999999994 39.3977999999999966
  5.0402500000000003 14.2886000000000006 38.8316000000000017
  8.0421899999999997  5.0794600000000001 22.0793999999999997
  6.6321099999999999  4.7387899999999998 22.5226000000000006
 -2.7220499999999999 13.8529999999999998 39.2869000000000028
 -3.8030700000000000 12.6339000000000006 39.3631999999999991
  6.6492000000000004  7.6249399999999996 21.6478000000000002
  5.3914200000000001  7.2832200000000000 22.3351000000000006
 14.0466999999999995  3.0010599999999998 34.5542000000000016
 14.0124999999999993  4.3293600000000003 33.6092999999999975
  3.6456499999999998 13.2098999999999993 24.8524999999999991
  4.1556100000000002 14.3190000000000008 25.6983999999999995
  1.4420800000000000 12.2066999999999997 22.4497000000000000
  2.6288800000000001 11.6081000000000003 21.6600000000000001
 -6.8998499999999998 12.8094999999999999 39.1124999999999972
  8.6413899999999995 13.8902000000000001 39.0908999999999978
 -3.4669599999999998  9.6540999999999997 14.7028999999999996
 -2.2601499999999999  8.6333199999999994 14.6430000000000007
 11.1769999999999996  1.8833599999999999 39.6229000000000013
 11.0587000000000000  1.7219500000000001 38.0082000000000022
  6.1861899999999999 10.6791999999999998 22.5034999999999989
  6.9569200000000002  9.9175900000000006 23.8791000000000011
  1.0047800000000000  1.8519200000000000 14.5869999999999997
  2.4511699999999998  1.2294400000000001 14.5690000000000008
  5.9458099999999998  3.8270900000000001 37.2706000000000017
  6.4452400000000001  3.2286400000000000 35.9731000000000023
 -0.7334530000000000 14.0899999999999999 37.1281000000000034
  7.2796900000000004  0.7445780000000000 38.0801000000000016
  3.4080100000000000  9.7226800000000004 24.9054000000000002
  2.4864400000000000  8.4803999999999995 24.9148999999999994
 -3.4095599999999999 14.1176999999999992 21.1589999999999989
 -3.3923100000000002 12.6080000000000005 21.0658999999999992
 12.9422999999999995  2.0660900000000000 30.8265999999999991
 13.3219999999999992  2.6496100000000000 32.3575000000000017
  9.4746900000000007  5.1542300000000001 14.4159000000000006
 10.9915000000000003  5.2252500000000000 15.1007999999999996
  8.1736100000000000 12.0111000000000008 37.2839999999999989
  7.2053300000000000 11.3053000000000008 36.1709999999999994
  6.9392300000000002 11.3407000000000000 27.8741999999999983
  7.9711999999999996 12.5922000000000001 28.2646000000000015
  8.7759000000000000  0.7958840000000000 27.7022000000000013
  8.8375400000000006  2.0614599999999998 28.7146000000000008
  4.3706399999999999  9.2224699999999995 31.3119000000000014
  3.1497500000000000  8.5219199999999997 31.7103999999999999
  0.6774370000000000  8.2811699999999995 31.7757000000000005
  1.6796100000000000  9.5017300000000002 32.7239000000000004
 -5.3471200000000003 11.6752000000000002 27.8736999999999995
 -5.3429599999999997 13.0008999999999997 27.3360999999999983
  0.0470320000000000 13.8637999999999995 39.1576000000000022
  1.4897100000000001 12.9027999999999992 39.2006999999999977
  3.4051600000000000  3.9029799999999999 21.2865000000000002
  3.0772499999999998  3.0274899999999998 22.3823000000000008
 -3.8904600000000000 14.4412000000000003 34.0795000000000030
 -3.8931499999999999 13.0001999999999995 34.3999000000000024
  8.2999600000000004 10.6875999999999998 33.6948999999999970
  7.8611199999999997  9.3831699999999998 32.8025000000000020
 -0.3884990000000000  9.9359800000000007 28.8585999999999991
  0.7506710000000000 10.7779000000000007 29.3002000000000002
  3.0357699999999999  9.1213200000000008 28.3189999999999991
  3.1223200000000002  9.5668100000000003 26.8779000000000003
  4.6977099999999998  7.7623100000000003 24.7708000000000013
  6.2050999999999998  7.3300400000000003 24.8628999999999998
 -7.1507399999999999 13.5401000000000007 34.3235999999999990
  8.4720800000000001 13.3181999999999992 35.1062000000000012
 12.5770999999999997  3.5425200000000001 15.3276000000000003
 11.6599000000000004  2.8314300000000001 16.2382999999999988
  8.8004499999999997  9.6975400000000000 20.3953999999999986
  7.9488099999999999 10.5211000000000006 21.3416999999999994
  4.9417999999999997  2.8082900000000000 27.9063000000000017
  6.5509800000000000  2.5208800000000000 28.0524999999999984
  3.3592100000000000 11.8267000000000007 23.5488999999999997
  4.7877700000000001 11.3885000000000005 24.0137999999999998
 12.3568999999999996  5.5603300000000004 30.3365000000000009
 12.7436000000000007  4.2509399999999999 31.0272000000000006
  2.2315600000000000  3.4251399999999999 38.0456000000000003
  2.2574200000000002  2.5706099999999998 39.3389000000000024
 -2.2010399999999999  4.0958500000000004 25.6677999999999997
 13.8071000000000002  2.9787599999999999 25.3040999999999983
  1.3219700000000001  5.0502200000000004 19.6936000000000000
  2.4281700000000002  5.9053300000000002 20.4547999999999988
 -1.8257099999999999 10.6582000000000008 33.2385999999999981
 -1.7051600000000000  9.7642799999999994 34.4722999999999971
 -1.0745000000000000  6.4938799999999999 15.2911999999999999
 -1.3824200000000000  7.6403699999999999 16.3045000000000009
  2.2893500000000002 12.2440999999999995 29.5148000000000010
  2.4517300000000000 11.6135999999999999 28.1763000000000012
 10.4016999999999999  7.0148700000000002 32.6600999999999999
  8.9855900000000002  7.5879599999999998 32.2689999999999984
  0.5561810000000000  4.4151800000000003 35.9898000000000025
  1.3851400000000000  2.9508100000000002 35.9649000000000001
  0.1651540000000000 12.2715999999999994 33.6918000000000006
  0.6227110000000000 13.5197000000000003 34.4677000000000007
 -3.5751900000000001  8.7396300000000000 33.0998000000000019
 12.3270999999999997  7.5926000000000000 33.7242999999999995
 -1.5214200000000000  5.3003099999999996 28.8228000000000009
 13.8163999999999998  5.2339300000000000 29.1183000000000014
 10.9664000000000001  9.3710199999999997 39.4941000000000031
 11.5919000000000008  9.1560900000000007 38.1024999999999991
  9.7731499999999993 11.9738000000000007 20.8725999999999985
 -5.7483100000000000 12.7538000000000000 21.1972999999999985
  7.8998799999999996  0.3066620000000000 21.8707999999999991
  0.0294785000000000 13.5065000000000008 22.1172000000000004
 -1.4619300000000000  9.2374899999999993 36.9177999999999997
 -0.6482300000000000 10.2885000000000009 36.2676000000000016
  3.7238600000000002  6.2212100000000001 31.9634000000000000
  3.8957099999999998  5.5816600000000003 33.4919000000000011
  3.7994699999999999  4.5368399999999998 39.1610000000000014
  5.3525900000000002  4.8354600000000003 39.5296000000000021
  9.2599999999999998  9.3794000000000004 22.4924999999999997
 10.2661999999999995  8.2522599999999997 22.8738999999999990
  8.4249200000000002  1.3533800000000000 23.6067999999999998
  7.3093399999999997  2.0706300000000000 24.6601999999999997
  6.1202199999999998 10.3254999999999999 38.7595000000000027
  4.6611099999999999  9.8671900000000008 39.1784000000000034
  1.4145399999999999  0.5662190000000000 35.7327999999999975
  2.8359899999999998  1.2822100000000001 36.0020999999999987
  7.0243799999999998 12.3168000000000006 24.2950000000000017
  7.8713400000000000 12.2138000000000009 25.6628000000000007
  1.0874100000000000  1.9827600000000001 23.0544000000000011
  0.9133080000000000  2.0625399999999998 21.5186999999999991
 -4.0490100000000000 11.5177999999999994 36.3802000000000021
  5.5741199999999997 14.1258999999999997 22.3623000000000012
  7.7441100000000000  8.1313999999999993 28.2981000000000016
  9.1766000000000005  8.9108699999999992 39.0033999999999992
  5.7926799999999998 10.2088000000000001 28.6104999999999983
  1.1443399999999999  4.7998700000000003 15.3202999999999996
  8.6624800000000004  6.4008900000000004 21.2209000000000003
 10.8504000000000005  5.0641100000000003 33.8500000000000014
  6.8315900000000003 14.3678000000000008 32.4750000000000014
 -2.7404099999999998  5.6189999999999998 32.6980000000000004
  5.5746799999999999  2.2608999999999999 31.2527000000000008
  7.3969300000000002  3.8980299999999999 38.7629999999999981
 -1.5811800000000000 12.7835999999999999 36.5031999999999996
 -1.7879400000000001  8.0981199999999998 18.0960999999999999
 10.2098999999999993  1.4178100000000000 36.5394999999999968
 -2.6374100000000000 11.0639000000000003 20.9671999999999983
  7.6936999999999998  7.9444499999999998 25.4774999999999991
  9.9898399999999992  9.6646699999999992 35.6983999999999995
 -0.5426130000000000  1.3376600000000001 38.8988000000000014
 13.2606999999999999  0.0920063000000000 35.9572000000000003
 -1.2161599999999999 12.6332000000000004 19.0706999999999987
  6.5026500000000000 11.7228999999999992 17.3947000000000003
 -8.2462099999999996 14.5736000000000008 19.4739000000000004
 -0.4260840000000000 12.5556999999999999 24.7650000000000006
 -3.4751500000000002  8.0104799999999994 21.5790000000000006
 10.4638000000000009 10.1897000000000002 31.6403999999999996
  0.2574430000000000  5.5845399999999996 22.6681999999999988