 H  O Pt 
 1.0000000000000000
    16.8689999999999998    0.0000000000000000    0.0000000000000000
    -8.4344999999999999   14.6089825363999992    0.0000000000000000
     0.0000000000000000    0.0000000000000000   41.4780000000000015
   H   O  Pt
 460 230 216
Cartesian
  7.6350199999999999  3.8632499999999999 20.2664000000000009
  6.2759299999999998  4.6829099999999997 20.2082000000000015
  0.0723857000000000 12.6843000000000004 19.2521999999999984
  0.5298090000000000 11.3506000000000000 18.5330000000000013
  4.4024000000000001 10.9906000000000006 21.2054000000000009
  2.8746999999999998 10.7359000000000009 21.4723000000000006
 11.9535000000000000  1.1394800000000000 26.2211999999999996
 11.6326999999999998  2.3616199999999998 25.2182999999999993
 -3.8846500000000002 11.8346000000000000 23.8845999999999989
 -4.5785200000000001 13.1931999999999992 24.3684000000000012
  4.7201599999999999  4.7666500000000003 24.1888000000000005
  6.1015199999999998  4.1344200000000004 23.9872000000000014
 -1.7920499999999999  6.9735899999999997 14.7887000000000004
 -1.3111500000000000  7.6161700000000003 16.1458000000000013
  2.0323699999999998 11.2550000000000008 26.2912999999999997
  3.0060799999999999 10.8493999999999993 27.5377000000000010
 -0.5168770000000000  6.1527799999999999 23.2374000000000009
 -0.4674970000000000  7.4396599999999999 24.4115000000000002
  1.1049500000000001  1.5212500000000000 35.7267999999999972
  1.7011900000000000  2.6947399999999999 36.2719999999999985
 -1.6623000000000001  7.7267400000000004 18.6489000000000011
 -1.7248800000000000  8.6719000000000008 17.4645000000000010
 -0.0417783000000000  0.3931140000000000 21.1981999999999999
 15.3551000000000002  0.9220650000000000 21.0878000000000014
 -2.6244399999999999 12.7566000000000006 25.4357000000000006
 -1.3748499999999999 13.0444999999999993 26.4375999999999998
 -4.8868999999999998 13.7817000000000007 18.9357000000000006
 -4.0603100000000003 13.4847000000000001 17.5726000000000013
  4.1345499999999999  0.9652770000000001 37.4206999999999965
  3.0747800000000001  1.5978200000000000 38.5058999999999969
  3.5238999999999998 10.3422000000000001 39.2259999999999991
  3.7609300000000001 11.8596000000000004 39.6659000000000006
  7.9944300000000004 14.0532000000000004 17.3847999999999985
  0.6502770000000000  0.4926270000000000 17.9545999999999992
  9.3315599999999996 12.1843000000000004 30.8430999999999997
  8.2888599999999997 13.0132999999999992 31.6201000000000008
 13.3400999999999996  2.5090900000000000 31.8653000000000013
 14.6486000000000001  2.3343799999999999 32.7586000000000013
  1.8224400000000001  8.6279100000000000 39.0840999999999994
  3.2138200000000001  8.5097400000000007 38.3429000000000002
 13.2444000000000006  5.3592100000000000 26.7334999999999994
 -3.0140600000000002  6.2663399999999996 27.8882000000000012
  7.7814800000000002  2.0264000000000002 22.3503000000000007
  6.7473599999999996  1.1457400000000000 23.0250999999999983
 -1.9151700000000000  3.7119100000000000 22.0820000000000007
 13.8804999999999996  2.6705100000000002 22.6864999999999988
  2.4931500000000000 14.4312000000000005 20.5285000000000011
  3.3356200000000000 13.1122999999999994 21.1226999999999983
  1.0992900000000001  6.9725299999999999 29.4468999999999994
  1.2400500000000001  6.0198299999999998 28.0193000000000012
 10.2775999999999996  6.3177599999999998 31.3045000000000009
 11.5130999999999997  7.3047500000000003 30.9337000000000018
  2.9599899999999999  9.7478800000000003 16.8146999999999984
  2.0743999999999998  9.2222200000000001 15.5532000000000004
 11.0891000000000002  4.1796400000000000 23.9699999999999989
 12.3475000000000001  4.5148400000000004 24.8255000000000017
 -0.4988770000000000 10.0587999999999997 22.6628000000000007
  1.0463100000000001 10.3376000000000001 23.1881999999999984
 11.5266000000000002  8.5039400000000001 18.6606999999999985
 -3.8621699999999999  8.4920299999999997 19.3283999999999985
 -6.5681599999999998 12.8721999999999994 34.8819999999999979
 -6.5703100000000001 12.1386000000000003 36.3207000000000022
  2.1325200000000000  2.8163000000000000 17.2071000000000005
  3.6267800000000001  2.4782600000000001 16.5184999999999995
 11.1111000000000004  3.5732499999999998 28.6721000000000004
 10.4219000000000008  2.3311600000000001 28.9534999999999982
  7.7528300000000003  4.2616500000000004 36.6715999999999980
  8.6548800000000004  3.4502199999999998 35.6332999999999984
  8.2162699999999997  0.5518459999999999 27.6678999999999995
  8.4159299999999995  0.0483737000000000 26.2686999999999991
 11.7811000000000003  4.5570199999999996 19.7449000000000012
 11.5182000000000002  3.3571700000000000 18.8448999999999991
 -3.1793800000000001  9.2444400000000009 26.6365000000000016
 -4.0711300000000001  7.8131899999999996 26.8586999999999989
  3.0675900000000000 13.4443000000000001 29.4887000000000015
  4.4332000000000003 13.1278000000000006 30.2621000000000002
  2.3885000000000001  0.0928043000000000 20.3433999999999990
  3.3891700000000000  1.1724200000000000 19.7623999999999995
  6.5654100000000000 11.5688999999999993 36.0675999999999988
  6.3257399999999997 11.5484000000000009 37.6227000000000018
  3.2024699999999999  4.6771599999999998 16.5721999999999987
  3.8428900000000001  5.9884399999999998 15.9578000000000007
 14.1549999999999994  0.6480089999999999 34.0758000000000010
  6.7594000000000003 14.5825999999999993 33.2522999999999982
  8.5531400000000009  3.0558600000000000 17.5042000000000009
  7.6483800000000004  4.1479499999999998 18.2158000000000015
  4.4091500000000003  7.7271400000000003 33.7809999999999988
  4.4915900000000004  6.0925700000000003 33.6499999999999986
  3.0729199999999999  0.1428960000000000 29.0648000000000017
  3.4249200000000002  1.6972000000000000 29.0908000000000015
 13.0310000000000006  4.7374400000000003 35.5563999999999965
 12.4596999999999998  5.8308299999999997 36.6062000000000012
  1.7879400000000001 12.3277000000000001 28.3795999999999999
  0.8508460000000000 13.5283999999999995 28.2821999999999996
  7.9866099999999998  8.1028000000000002 20.4139000000000017
  8.9943399999999993  9.0770499999999998 21.1616999999999997
  8.6411999999999995  5.4691299999999998 38.2070000000000007
  7.8225199999999999  6.6352300000000000 37.6079000000000008
 12.7416000000000000  1.5156499999999999 18.5696000000000012
 11.5289000000000001  0.9225220000000000 17.8950999999999993
  6.2010500000000004 12.2935999999999996 14.9175000000000004
  4.6507800000000001 12.0905000000000005 15.3977000000000004
 -2.5592500000000000  6.4937600000000000 35.7588000000000008
 -1.9872200000000000  7.3056900000000002 34.3736999999999995
 -2.4448200000000000 12.2809000000000008 34.0018000000000029
 -2.8003700000000000 12.3873999999999995 32.3153999999999968
 -3.2482600000000001  9.0076300000000007 33.6955000000000027
 -3.3519800000000002 10.4948999999999995 33.4153000000000020
  0.1720900000000000 11.9545999999999992 32.2993999999999986
 -0.2944690000000000 11.5604999999999993 33.7967999999999975
 -4.9820200000000003  9.8798700000000004 23.6985999999999990
 -4.0634899999999998  9.6920300000000008 24.9197999999999986
 -0.0596992000000000 14.3902999999999999 31.3215000000000003
  7.6795900000000001  1.0696900000000000 31.9342000000000006
 11.2558000000000007  0.6485730000000000 35.6963000000000008
  9.9806200000000000  1.2757400000000001 36.3950000000000031
 13.3571000000000009  4.2347000000000001 39.2689000000000021
 13.8312000000000008  4.5725499999999997 37.8164000000000016
 -5.5339799999999997 13.5458999999999996 26.8575000000000017
 -5.1672700000000003 12.6183999999999994 28.0990000000000002
  4.6509999999999998  9.7705099999999998 28.5368999999999993
  5.0462499999999997  9.6749299999999998 26.8845999999999989
  2.7179300000000000  9.0535200000000007 35.0844999999999985
  2.3536600000000001  7.4040299999999997 35.2175000000000011
  0.4703310000000000  2.3315399999999999 16.4591999999999992
 -0.0361378000000000  3.1747700000000001 17.6823000000000015
  8.7591400000000004 12.9190000000000005 21.1043999999999983
  8.6864299999999997 13.6708999999999996 19.8115999999999985
 12.8983000000000008  6.2400599999999997 38.8821000000000012
 12.4234000000000009  7.5145400000000002 39.7477000000000018
 -5.4014400000000000  9.4424700000000001 32.1088999999999984
 10.0818999999999992 10.1628000000000007 32.4703000000000017
  4.2169200000000000  2.8811399999999998 27.3492999999999995
  4.2914599999999998  3.8463400000000001 28.5774000000000008
  7.1932799999999997 12.9298999999999999 23.1065000000000005
  6.8269000000000002 12.0319000000000003 21.9379999999999988
 -2.9910000000000001 12.8937000000000008 15.0929000000000002
 -3.3198200000000000 11.2841000000000005 15.1234999999999999
  5.5671900000000001  8.4127500000000008 24.7968000000000011
  4.3774100000000002  9.5614699999999999 24.6277000000000008
  6.1062200000000004  6.1243200000000000 24.2985000000000007
  6.6009500000000001  6.7902300000000002 25.6779000000000011
 10.1395999999999997  0.5163270000000000 24.9979000000000013
  9.1477699999999995  0.1556220000000000 23.8188999999999993
  2.3618899999999998 14.0704999999999991 39.0304000000000002
  3.4848200000000000 13.5408000000000008 37.8684999999999974
  6.3872999999999998  2.9813800000000001 14.7696000000000005
  6.8685999999999998  3.5262300000000000 16.2242999999999995
  2.1997100000000001  5.6698700000000004 36.9983000000000004
  1.0976200000000000  5.4629099999999999 35.6642000000000010
  8.5058699999999998 11.2043999999999997 23.9398000000000017
  8.6688299999999998 10.6068999999999996 25.4467999999999996
  6.5356800000000002  3.1036000000000001 35.4626000000000019
  5.0523400000000001  3.5915800000000000 34.9170000000000016
  0.0237633000000000  8.7815700000000003 37.0531999999999968
 -1.1322099999999999  8.2053799999999999 36.0446999999999989
 -3.5199300000000000  6.9739899999999997 23.5970000000000013
 11.8434000000000008  7.0834999999999999 23.9344999999999999
  5.5152099999999997  1.4271900000000000 32.2081999999999979
  6.2730199999999998  2.2983699999999998 33.4159999999999968
  3.2106599999999998  8.8592300000000002 23.1557999999999993
  2.5698900000000000  8.8552800000000005 24.5137000000000000
  4.7325999999999997  7.6881199999999996 21.5075000000000003
  4.4558299999999997  9.0098299999999991 20.7776999999999994
  4.4097000000000000  9.3112300000000001 14.4679000000000002
  5.7273899999999998 10.2911000000000001 14.7903000000000002
  0.9124510000000000  4.3456700000000001 22.6016000000000012
  1.2884000000000000  5.6821999999999999 21.8353999999999999
 -7.0058999999999996 14.0130999999999997 25.0903999999999989
 -6.7248599999999996 12.5024999999999995 24.8271000000000015
  7.5419000000000000  7.4991500000000002 18.5015000000000001
  7.9522199999999996  6.1229500000000003 19.3283999999999985
 11.9469999999999992  2.5072100000000002 35.2083000000000013
 12.7734000000000005  3.0496599999999998 33.9844000000000008
  9.3907000000000007  4.8863200000000004 27.4893000000000001
  8.4225700000000003  4.5368800000000000 26.2854999999999990
  6.9235400000000000  8.3995499999999996 37.9380000000000024
  8.2497399999999992  8.7378900000000002 37.4921999999999969
  3.3001900000000002 13.8277999999999999 33.7719000000000023
 11.7231000000000005  0.7558060000000000 33.2304000000000030
  8.2156199999999995 11.1631999999999998 18.3267999999999986
  7.0662599999999998 10.1608000000000001 17.6188000000000002
  9.7375200000000000  9.1170399999999994 39.5765000000000029
  8.8314599999999999 10.2172000000000001 38.9998000000000005
 13.0858000000000008  0.8318530000000000 28.0755000000000017
 14.2567000000000004  0.5262940000000000 27.0901999999999994
  1.9539700000000000 13.1743000000000006 17.7364999999999995
  3.1752099999999999 13.3224999999999998 16.7195000000000000
 -0.0922605000000000 10.2296999999999993 14.8942999999999994
 -0.0422993000000000  8.6782800000000009 14.3508999999999993
  9.0503499999999999  8.6021400000000003 34.4110999999999976
  7.5390300000000003  8.4071099999999994 34.9926999999999992
  5.1618500000000003  1.4120400000000000 35.5369999999999990
  3.8381099999999999  0.6415850000000000 35.4939999999999998
  7.6747600000000000  2.6229100000000001 24.5642999999999994
  7.3175200000000000  2.4912899999999998 26.0684000000000005
 -0.7579890000000000  8.3617200000000000 39.3241000000000014
  0.0162629000000000  6.9054099999999998 39.1227000000000018
 12.7317000000000000  2.1597499999999998 38.8076000000000008
 11.7256999999999998  2.6170000000000000 37.6888999999999967
  0.9173230000000000  5.6052499999999998 31.3850000000000016
  0.9969690000000000  7.2300000000000004 31.4817999999999998
  0.8229370000000000 13.4387000000000008 15.3429000000000002
  1.0801200000000000 14.4614999999999991 14.3405000000000005
 13.1583000000000006  3.2361399999999998 15.4464000000000006
 12.4285999999999994  2.1372599999999999 16.2897999999999996
  2.4201000000000001  4.3782899999999998 27.4720000000000013
  0.8981830000000000  4.5145200000000001 26.9271999999999991
  6.2963800000000001  5.5022099999999998 38.3301000000000016
  5.6444400000000003  6.0810700000000004 39.5760999999999967
  2.9258600000000001 12.2878000000000007 14.1537000000000006
  2.9725899999999998 11.3255999999999997 15.3396000000000008
  2.4911900000000000  4.8770899999999999 24.9954000000000001
  3.0592800000000002  3.5835300000000001 24.3308000000000000
  9.7748600000000003  3.2836799999999999 14.8020999999999994
 10.9458000000000002  2.0935500000000000 14.7556999999999992
  3.0098900000000000  6.8044799999999999 30.8399000000000001
  4.3190799999999996  6.9739300000000002 31.6837000000000018
 -0.7543950000000000  2.7797000000000001 20.3312999999999988
 -0.2152040000000000  4.2074100000000003 20.9606999999999992
 11.9205000000000005  2.1842000000000001 30.1235999999999997
 12.5238999999999994  0.6567090000000000 30.5746000000000002
  9.3578100000000006  1.4814300000000000 39.4680000000000035
 10.9815000000000005  1.3177099999999999 39.3825000000000003
  3.7881200000000002  3.0908799999999998 18.3683000000000014
  4.4969900000000003  3.5000499999999999 19.5936999999999983
  3.3237600000000000  0.7346910000000000 14.8620999999999999
  3.9819499999999999  2.0212800000000000 14.4588999999999999
  7.7904200000000001  8.0196000000000005 32.5330000000000013
  6.3290899999999999  7.3360500000000002 32.6381999999999977
  5.9100099999999998  8.5856700000000004 40.0688000000000031
  5.6718999999999999  9.6053400000000000 38.9525000000000006
  2.3007700000000000  9.3361300000000007 18.9438999999999993
  3.3889300000000002 10.2675999999999998 19.2270000000000003
  3.7260000000000000  5.3068999999999997 20.6998999999999995
  4.4199599999999997  4.3237300000000003 21.7516999999999996
 -1.0969199999999999  4.0666300000000000 26.2067000000000014
 -0.9249210000000000  3.7995800000000002 27.8640000000000008
 -0.8769740000000000  6.7718100000000003 28.7213999999999992
 -1.8857200000000001  6.4277699999999998 29.8932000000000002
  7.7276699999999998 10.5221000000000000 34.4949000000000012
  8.4123400000000004 11.8298000000000005 34.9776000000000025
  8.1250099999999996 14.3537999999999997 38.0016000000000034
 -7.8201900000000002 14.1561000000000003 39.1754999999999995
  4.9127900000000002 14.4435000000000002 20.1606999999999985
 14.3573000000000004  0.1321390000000000 18.8548000000000009
 -6.1558400000000004 13.0906000000000002 32.4609999999999985
 -4.8610199999999999 13.0722000000000005 33.2319000000000031
 -3.7959999999999998  9.8356300000000001 17.7576999999999998
 -3.9357099999999998  9.3184699999999996 16.2938000000000009
  9.1928900000000002  3.4636800000000001 21.5493999999999986
  9.0953400000000002  2.0354899999999998 20.7773000000000003
 10.3882999999999992  5.9996499999999999 37.2856000000000023
 10.9033999999999995  7.1703400000000004 36.2717000000000027
  6.1455599999999997  7.9371600000000004 16.8008999999999986
  5.2561000000000000  8.4949800000000000 17.9136999999999986
 10.3277999999999999  3.9598100000000001 34.6360999999999990
  9.7800600000000006  2.9980400000000000 33.6285000000000025
  8.1135400000000004  8.7992299999999997 14.6495999999999995
  8.7969899999999992 10.2626000000000008 15.0632999999999999
 13.0602999999999998  4.4830699999999997 21.5279999999999987
 12.4298999999999999  5.8189000000000002 21.8529000000000018
  5.8362200000000000  0.5162720000000000 26.9459000000000017
  4.3680800000000000  0.3143680000000000 26.9843000000000011
  0.4559340000000000 12.5444999999999993 30.3264999999999993
 -1.2178400000000000 12.2607999999999997 30.6216000000000008
 -2.2971599999999999 12.1308000000000007 38.7738000000000014
 -2.9573999999999998 10.7513000000000005 38.7006000000000014
  9.3427199999999999  4.7227399999999999 16.3230000000000004
 10.8597999999999999  5.3051800000000000 16.1248000000000005
 11.1867999999999999  2.0424600000000002 31.9120999999999988
  9.7759900000000002  1.1867200000000000 32.0915000000000035
  9.3867700000000003  0.7825590000000000 19.2170999999999985
  0.5201300000000000 14.3030000000000008 20.3735999999999997
 -5.4510500000000004  9.4238400000000002 20.3830999999999989
 10.9369999999999994  9.1332900000000006 21.9100000000000001
  1.2932600000000001  0.8017260000000000 27.5648000000000017
  0.5434230000000000  1.9336599999999999 26.7593999999999994
  6.0796099999999997 13.1456000000000000 17.1086999999999989
  5.8057499999999997 14.4478000000000009 16.3009999999999984
 13.2047000000000008  5.7873700000000001 31.2483000000000004
 -2.4364100000000000  4.8664199999999997 31.5770000000000017
 -0.6136230000000000 11.8635000000000002 16.4978000000000016
 -1.6439900000000001 10.6652000000000005 16.2624999999999993
  2.3480200000000000 11.1730000000000000 36.1929000000000016
  3.9306500000000000 10.7270000000000003 36.0658000000000030
 -4.7688800000000002  9.9235000000000007 27.8505000000000003
 -5.7466100000000004 10.6958000000000002 29.0311999999999983
  7.9551200000000000  1.0293099999999999 17.8538999999999994
  9.1822800000000004  0.6900380000000000 16.9832000000000001
 -0.9766430000000000  8.1206700000000005 32.9346999999999994
 -2.1714099999999998  7.3364000000000003 32.1017999999999972
  5.8638300000000001  5.3576899999999998 15.5632999999999999
  5.7825300000000004  6.4406400000000001 14.4715000000000007
 -2.3508100000000001 14.5509000000000004 37.9577999999999989
  7.3487999999999998  0.6152020000000000 38.4356000000000009
 10.1433000000000000  8.3179200000000009 17.0269000000000013
  9.6253799999999998  7.5008200000000000 18.2982000000000014
 -6.8258700000000001 13.9326000000000008 15.9239999999999995
 -6.7244099999999998 13.6918000000000006 14.3390000000000004
  0.0409114000000000  4.7295299999999996 39.6704999999999970
 -1.3658800000000000  5.1979600000000001 38.8755999999999986
 -2.4558000000000000  4.3468200000000001 24.1458000000000013
 -1.8409400000000000  5.7842099999999999 24.4751000000000012
 -3.4609100000000002 12.3461999999999996 19.8814999999999991
 -3.0556399999999999 10.8664000000000005 20.4831000000000003
 -4.7622900000000001 14.1554000000000002 39.5350999999999999
 -4.3465499999999997 12.6371000000000002 39.4238000000000000
 10.6687999999999992  9.5459800000000001 35.7931999999999988
 11.5233000000000008  9.0468399999999995 34.5850000000000009
  0.2275480000000000  1.8691899999999999 22.6634999999999991
  1.2718200000000000  2.4368400000000001 23.8022999999999989
  2.7528400000000000  2.3661300000000001 32.4504000000000019
  2.0804900000000002  2.6684700000000001 33.8607000000000014
  3.5639099999999999  0.4384900000000000 32.4742000000000033
  3.6815000000000002  1.0054000000000001 30.9374000000000002
  6.0676699999999997  4.8578200000000002 30.0185999999999993
  4.7497299999999996  5.6989999999999998 29.8719999999999999
 -1.1883400000000000 10.0602000000000000 27.3109000000000002
 -1.9135800000000001 10.9689999999999994 26.4642000000000017
 -0.1592330000000000  9.3293599999999994 18.8600999999999992
  0.4665730000000000  9.7314399999999992 20.3384000000000000
  9.8612500000000001  9.9474800000000005 30.6245000000000012
  8.8945600000000002  9.6512100000000007 29.3252999999999986
  8.1478599999999997  7.1399900000000001 22.3934999999999995
  8.0609300000000008  6.8391599999999997 23.9314999999999998
 12.3788999999999998  7.4363099999999998 14.7350999999999992
 11.3383000000000003  8.6454900000000006 14.8597999999999999
 -1.4072800000000001  2.8170299999999999 29.7467000000000006
 14.0713000000000008  3.1519599999999999 29.0389000000000017
 -0.7681340000000000  2.0169199999999998 36.7916999999999987
 -0.4628750000000000  3.1937199999999999 37.8434999999999988
  6.0092100000000004 12.5579000000000001 31.9466000000000001
  7.0207899999999999 12.3277000000000001 33.0046000000000035
 10.9577000000000009  4.6603399999999997 22.0331000000000010
  9.7753599999999992  5.3384299999999998 22.8471000000000011
 -2.7709700000000002  7.9218700000000002 20.7453000000000003
 -2.9865800000000000  6.4828799999999998 20.0523999999999987
 -6.4241900000000003 11.2117000000000004 16.5261999999999993
 -5.5102000000000002 11.4786000000000001 15.2750000000000004
 14.5899000000000001  0.5704580000000000 39.4196000000000026
 14.9113000000000007  1.7889999999999999 38.4050999999999974
  6.9071600000000002 10.2518999999999991 25.6513999999999989
  7.8989700000000003  9.5215300000000003 26.6886000000000010
  7.9842300000000002  4.4474099999999996 31.1812000000000005
  6.9971600000000000  3.2368600000000001 31.2504999999999988
  2.1085199999999999  3.5541200000000002 38.9399000000000015
  1.3454800000000000  2.4390900000000002 39.7090999999999994
  0.6975610000000000 11.8101000000000003 37.3909999999999982
  1.9637100000000001 12.6103000000000005 37.6801999999999992
  6.3407600000000004  0.1676410000000000 19.3231000000000002
  5.6726099999999997  1.3242799999999999 18.5085000000000015
  8.3030000000000008  6.1204000000000001 32.1608999999999980
  9.2382899999999992  4.9708199999999998 32.8847000000000023
  3.2420499999999999  4.9893700000000001 35.1726999999999990
  3.4332500000000001  4.2522399999999996 33.7032000000000025
  0.3187590000000000  2.5787599999999999 14.2159999999999993
  0.7617630000000000  1.0680900000000000 14.7561000000000000
  3.8506100000000001  5.5773099999999998 38.6544000000000025
  2.4805100000000002  5.7090800000000002 39.4968999999999966
 -0.4771230000000000  9.1873699999999996 25.7128000000000014
  0.7348370000000000  8.3611299999999993 26.0828999999999986
 -1.3198000000000001 14.1479999999999997 15.0350000000000001
  5.5626600000000002  0.3561990000000000 15.4974000000000007
 -3.4988600000000001  8.4294799999999999 38.3230999999999966
 -2.1404200000000002  9.0596200000000007 37.6634000000000029
 -0.3550760000000000 11.0328999999999997 39.6478999999999999
 -0.0305986000000000 12.6289999999999996 39.4528999999999996
  4.9946299999999999 13.0481999999999996 23.9634999999999998
  5.2439400000000003 11.5596999999999994 24.4546999999999990
 -2.5208800000000000  8.5197099999999999 29.5637000000000008
 -3.6947899999999998  9.4817099999999996 29.3665999999999983
  0.4495990000000000  9.5763700000000007 32.9465000000000003
  1.3636600000000001  8.3696599999999997 33.6287000000000020
  0.8561290000000000  7.4326299999999996 17.7684999999999995
  1.9716400000000001  6.3383599999999998 17.3872000000000000
 10.7484999999999999  6.4371600000000004 38.9874000000000009
 10.4418000000000006  4.9560300000000002 39.4767000000000010
  3.4477799999999998  1.2172700000000001 24.7579999999999991
  3.9802700000000000  1.5695300000000001 23.3642000000000003
 12.2323000000000004  0.7664830000000000 22.3383000000000003
 12.1595999999999993  1.0439099999999999 23.9767000000000010
  1.0361899999999999  1.7295700000000001 30.1438999999999986
  0.2983580000000000  0.5216229999999999 30.6817999999999991
  1.8651300000000000 11.8895000000000000 33.5170000000000030
  3.0436200000000002 11.4842999999999993 34.4048999999999978
  3.2198400000000000  8.7326200000000007 26.9509000000000007
  2.3897499999999998  7.4422800000000002 27.0845999999999982
 -0.6093790000000000  4.3834200000000001 35.5484000000000009
 -0.6816920000000000  5.8667499999999997 35.0048999999999992
  6.7670199999999996  9.8916199999999996 20.8292999999999999
  6.3507699999999998 10.7005999999999997 19.6594000000000015
  0.5818130000000000  3.7104699999999999 32.2353999999999985
 -0.3811720000000000  4.4362700000000004 33.2023000000000010
 -2.9870000000000001  8.9914500000000004 22.7310000000000016
 -1.6276999999999999  8.1605500000000006 22.8016000000000005
  5.1622000000000003  2.2670599999999999 38.9498999999999995
  5.4812000000000003  3.7995600000000000 39.3849000000000018
  8.8269000000000002 11.6004000000000005 28.4661000000000008
  9.0111100000000004 13.0378000000000007 28.8984999999999985
  0.1935610000000000  8.7505799999999994 28.5323999999999991
  1.0067299999999999 10.0586000000000002 28.0097999999999985
  6.6575499999999996 14.4623000000000008 24.4920000000000009
 14.1079000000000008  0.3295690000000000 23.3901000000000003
 15.1702999999999992  0.7202950000000000 14.6624999999999996
 13.7174999999999994  1.1960299999999999 14.8697999999999997
  8.3411200000000001  2.9641999999999999 29.0274000000000001
  8.5026100000000007  1.6431700000000000 29.7933999999999983
 16.3218999999999994  0.0268518000000000 26.7283000000000008
  7.3108000000000004 13.2340000000000000 27.0074000000000005
  5.7759499999999999  9.4476800000000001 30.2136999999999993
  4.3735499999999998  8.9466099999999997 30.2864000000000004
  2.6534200000000001  7.2215699999999998 20.5049999999999990
  1.7523000000000000  6.3793300000000004 19.6469999999999985
 -0.8821670000000000 12.4336000000000002 35.8181000000000012
 -1.1505399999999999 10.8171999999999997 35.7396999999999991
  9.8031699999999997  8.1999399999999998 23.4805999999999990
  9.9447399999999995  9.5010999999999992 24.2332999999999998
 13.2899999999999991  5.1960199999999999 16.4332999999999991
 -2.2479499999999999  4.3862800000000002 16.5917999999999992
  5.2453399999999997 14.4337999999999997 37.5354999999999990
  5.1589999999999998 13.1808999999999994 36.5927999999999969
 -1.0215700000000001  4.5903900000000002 19.1466999999999992
 -0.3233290000000000  5.5187099999999996 18.0035999999999987
  1.4159999999999999 12.5364000000000004 24.5918999999999990
  2.8657599999999999 11.9608000000000008 24.5804000000000009
  7.2657499999999997  7.9993699999999999 30.4227999999999987
  7.2023200000000003  7.8848399999999996 28.9329000000000001
  7.7084500000000000 12.4260000000000002 38.8040000000000020
  6.9366099999999999 11.3863000000000003 39.7235000000000014
 10.9347999999999992  5.6609100000000003 29.3824000000000005
 11.4903999999999993  5.6275399999999998 27.9173000000000009
 10.0649999999999995  8.0673899999999996 25.5947999999999993
  9.1034000000000006  7.0675200000000000 26.5316000000000010
  6.0862100000000003  6.1994100000000003 28.2626999999999988
  7.4979199999999997  6.2349899999999998 27.4868999999999986
  8.6448999999999998 14.2090999999999994 35.8806999999999974
 15.7250999999999994  0.3349520000000000 35.3487000000000009
  8.9749999999999996  6.3960900000000001 15.1445000000000007
  7.5748699999999998  6.9487300000000003 14.8648000000000007
 -0.0410458000000000 12.1805000000000003 21.6143999999999998
 -1.3270299999999999 12.5480999999999998 20.8945000000000007
 -5.7691900000000000 10.2304999999999993 37.6972999999999985
 -4.5414300000000001 11.0650999999999993 37.1430999999999969
 -6.2192699999999999 12.0259999999999998 18.7526000000000010
 10.0646000000000004 10.6470000000000002 19.1917000000000009
 -0.5916500000000000 14.5281000000000002 36.5690000000000026
  0.5411560000000000 13.6488999999999994 36.1980000000000004
 11.6483000000000008  6.5824299999999996 17.2800000000000011
 11.5596999999999994  5.1230399999999996 17.8804000000000016
 -3.4297000000000000 14.2824000000000009 22.9372000000000007
  4.7052699999999996  0.3482740000000000 21.5163000000000011
 -2.8698000000000001 10.7347000000000001 30.4592999999999989
 -3.2263500000000001 12.0228000000000002 29.6320000000000014
  7.4588200000000002  2.5953499999999998 39.2426999999999992
  8.3631700000000002  2.6048499999999999 37.9542000000000002
  4.6469500000000004 11.0809999999999995 31.1801999999999992
  4.0085199999999999 11.8789999999999996 32.5264000000000024
 -0.0157107000000000  5.3349799999999998 14.9074000000000009
  1.4192499999999999  4.7760400000000001 15.2096999999999998
  7.2266100000000000  4.7733400000000001 20.0309999999999988
  0.3619450000000000 12.2837999999999994 18.3320000000000007
  3.4540099999999998 11.3321000000000005 20.9770000000000003
 11.4407999999999994  1.3492999999999999 25.3937999999999988
 -3.7149600000000000 12.8318999999999992 24.0004999999999988
  5.5640599999999996  4.8752300000000002 23.6616999999999997
 -1.0798399999999999  7.4618700000000002 15.2469000000000001
  2.0380699999999998 11.1265999999999998 27.2917999999999985
 -1.0213900000000000  6.8884699999999999 23.7292999999999985
  1.9283699999999999  2.0506600000000001 35.5587999999999980
 -1.0603499999999999  8.1535799999999998 17.9786999999999999
 -0.5822340000000000  1.2058500000000001 21.3011000000000017
 -2.2567900000000001 12.5534999999999997 26.3215000000000003
 -4.6863400000000004 13.1090999999999998 18.2762999999999991
  3.9393899999999999  1.1258300000000001 38.4585000000000008
  4.1899600000000001 10.9754000000000005 39.5979000000000028
 -7.9699900000000001 14.1135000000000002 17.8164000000000016
  9.2350899999999996 13.0260999999999996 31.3092000000000006
 13.8968000000000007  2.9169800000000001 32.5275999999999996
  2.5843799999999999  9.1323500000000006 38.6278999999999968
 13.0708000000000002  6.1947299999999998 27.2922000000000011
  7.6482099999999997  1.5097300000000000 23.1703000000000010
 14.1102000000000007  3.6005699999999998 22.5976999999999997
  3.3239100000000001 14.1021000000000001 21.0338999999999992
  0.6819760000000000  6.7757399999999999 28.5466000000000015
 11.1898000000000000  6.3952000000000000 30.8241000000000014
  2.9061900000000001  9.6798999999999999 15.8125999999999998