&FORCE_EVAL
METHOD QS
STRESS_TENSOR ANALYTICAL
&DFT
BASIS_SET_FILE_NAME BASIS_MOLOPT
BASIS_SET_FILE_NAME BASIS_ADMM
BASIS_SET_FILE_NAME BASIS_ADMM_MOLOPT
BASIS_SET_FILE_NAME BASIS_MOLOPT-HSE06
POTENTIAL_FILE_NAME GTH_POTENTIALS
&MGRID
CUTOFF 400
&END MGRID
&QS
EPS_DEFAULT 1e-13
&END QS
&SCF
SCF_GUESS RESTART
EPS_SCF 1e-06
MAX_SCF 500
ADDED_MOS 500
CHOLESKY INVERSE
&SMEAR ON
METHOD FERMI_DIRAC
ELECTRONIC_TEMPERATURE 300
&END SMEAR
&DIAGONALIZATION
ALGORITHM STANDARD
&END DIAGONALIZATION
&MIXING
METHOD BROYDEN_MIXING
ALPHA 0.3
BETA 1.5
NBUFFER 8
&END MIXING
&END SCF
&XC
&XC_FUNCTIONAL PBE
&END XC_FUNCTIONAL
&vdW_POTENTIAL
DISPERSION_FUNCTIONAL PAIR_POTENTIAL
&PAIR_POTENTIAL
TYPE DFTD3
PARAMETER_FILE_NAME dftd3.dat
REFERENCE_FUNCTIONAL PBE
&END PAIR_POTENTIAL
&END vdW_POTENTIAL
&END XC
&PRINT
&V_HARTREE_CUBE
ADD_LAST NUMERIC
STRIDE 8 8 1
&END V_HARTREE_CUBE
&E_DENSITY_CUBE
ADD_LAST NUMERIC
STRIDE 8 8 1
&END E_DENSITY_CUBE
&TOT_DENSITY_CUBE
ADD_LAST NUMERIC
STRIDE 1 1 1
&END TOT_DENSITY_CUBE
&PDOS
&LDOS
LIST 1 2 3
&END LDOS
&LDOS
LIST 4 5 6
&END LDOS
&LDOS
LIST 7 8 9
&END LDOS
&LDOS
LIST 10 11 12
&END LDOS
&LDOS
LIST 13 14 15
&END LDOS
&LDOS
LIST 16 17 18
&END LDOS
&LDOS
LIST 19 20 21
&END LDOS
&LDOS
LIST 22 23 24
&END LDOS
&LDOS
LIST 25 26 27
&END LDOS
&LDOS
LIST 28 29 30
&END LDOS
&LDOS
LIST 31 32 33
&END LDOS
&LDOS
LIST 34 35 36
&END LDOS
&LDOS
LIST 37 38 39
&END LDOS
&LDOS
LIST 40 41 42
&END LDOS
&LDOS
LIST 43 44 45
&END LDOS
&LDOS
LIST 46 47 48
&END LDOS
&LDOS
LIST 49 50 51
&END LDOS
&LDOS
LIST 52 53 54
&END LDOS
&LDOS
LIST 55 56 57
&END LDOS
&LDOS
LIST 58 59 60
&END LDOS
&LDOS
LIST 61 62 63
&END LDOS
&LDOS
LIST 64 65 66
&END LDOS
&LDOS
LIST 67 68 69
&END LDOS
&LDOS
LIST 70 71 72
&END LDOS
&LDOS
LIST 73 74 75
&END LDOS
&LDOS
LIST 76 77 78
&END LDOS
&LDOS
LIST 79 80 81
&END LDOS
&LDOS
LIST 82 83 84
&END LDOS
&LDOS
LIST 85 86 87
&END LDOS
&LDOS
LIST 88 89 90
&END LDOS
&LDOS
LIST 91 92 93
&END LDOS
&LDOS
LIST 94 95 96
&END LDOS
&LDOS
LIST 97 98 99
&END LDOS
&LDOS
LIST 100 101 102
&END LDOS
&LDOS
LIST 103 104 105
&END LDOS
&LDOS
LIST 106 107 108
&END LDOS
&LDOS
LIST 109 110 111
&END LDOS
&LDOS
LIST 112 113 114
&END LDOS
&LDOS
LIST 115 116 117
&END LDOS
&LDOS
LIST 118 119 120
&END LDOS
&LDOS
LIST 121 122 123
&END LDOS
&LDOS
LIST 124 125 126
&END LDOS
&LDOS
LIST 127 128 129
&END LDOS
&LDOS
LIST 130 131 132
&END LDOS
&LDOS
LIST 133 134 135
&END LDOS
&LDOS
LIST 136 137 138
&END LDOS
&LDOS
LIST 139 140 141
&END LDOS
&LDOS
LIST 142 143 144
&END LDOS
&LDOS
LIST 145 146 147
&END LDOS
&LDOS
LIST 148 149 150
&END LDOS
&LDOS
LIST 151 152 153
&END LDOS
&LDOS
LIST 154 155 156
&END LDOS
&LDOS
LIST 157 158 159
&END LDOS
&LDOS
LIST 160 161 162
&END LDOS
&LDOS
LIST 163 164 165
&END LDOS
&LDOS
LIST 166 167 168
&END LDOS
&LDOS
LIST 169 170 171
&END LDOS
&LDOS
LIST 172 173 174
&END LDOS
&LDOS
LIST 175 176 177
&END LDOS
&LDOS
LIST 178 179 180
&END LDOS
&LDOS
LIST 181 182 183
&END LDOS
&LDOS
LIST 184 185 186
&END LDOS
&LDOS
LIST 187 188 189
&END LDOS
&LDOS
LIST 190 191 192
&END LDOS
&LDOS
LIST 193 194 195
&END LDOS
&LDOS
LIST 196 197 198
&END LDOS
&LDOS
LIST 199 200 201
&END LDOS
&LDOS
LIST 202 203 204
&END LDOS
&LDOS
LIST 205 206 207
&END LDOS
&LDOS
LIST 208 209 210
&END LDOS
&LDOS
LIST 211 212 213
&END LDOS
&LDOS
LIST 214 215 216
&END LDOS
&LDOS
LIST 217 218 219
&END LDOS
&LDOS
LIST 220 221 222
&END LDOS
&LDOS
LIST 223 224 225
&END LDOS
&LDOS
LIST 226 227 228
&END LDOS
&LDOS
LIST 229 230 231
&END LDOS
&LDOS
LIST 232 233 234
&END LDOS
&LDOS
LIST 235 236 237
&END LDOS
&LDOS
LIST 238 239 240
&END LDOS
&LDOS
LIST 241 242 243
&END LDOS
&LDOS
LIST 244 245 246
&END LDOS
&LDOS
LIST 247 248 249
&END LDOS
&LDOS
LIST 250 251 252
&END LDOS
&LDOS
LIST 253 254 255
&END LDOS
&LDOS
LIST 256 257 258
&END LDOS
&LDOS
LIST 259 260 261
&END LDOS
&LDOS
LIST 262 263 264
&END LDOS
&LDOS
LIST 265 266 267
&END LDOS
&LDOS
LIST 268 269 270
&END LDOS
&LDOS
LIST 271 272 273
&END LDOS
&LDOS
LIST 274 275 276
&END LDOS
&LDOS
LIST 277 278 279
&END LDOS
&LDOS
LIST 280 281 282
&END LDOS
&LDOS
LIST 283 284 285
&END LDOS
&LDOS
LIST 286 287 288
&END LDOS
&LDOS
LIST 289 290 291
&END LDOS
&LDOS
LIST 292 293 294
&END LDOS
&LDOS
LIST 295 296 297
&END LDOS
&END PDOS
&END PRINT
SURFACE_DIPOLE_CORRECTION .TRUE.
&END DFT
&SUBSYS
&TOPOLOGY
COORD_FILE_FORMAT XYZ
COORD_FILE_NAME coord.xyz
&END TOPOLOGY
&KIND O
POTENTIAL GTH-PBE-q6
BASIS_SET DZVP-MOLOPT-SR-GTH
&END KIND
&KIND H
POTENTIAL GTH-PBE-q1
BASIS_SET DZVP-MOLOPT-SR-GTH
&END KIND
&KIND Pt
POTENTIAL GTH-PBE-q10
BASIS_SET DZVP-A5-Q10-323-MOL-T1-DERIVED_SET-1
&END KIND
&KIND Ag
POTENTIAL GTH-PBE-q11
BASIS_SET DZVP-MOLOPT-SR-GTH
&END KIND
&KIND Na
POTENTIAL GTH-PBE-q9
BASIS_SET DZVP-MOLOPT-SR-GTH
&END KIND
&KIND K
POTENTIAL GTH-PBE-q9
BASIS_SET DZVP-MOLOPT-SR-GTH
&END KIND
&KIND Li
POTENTIAL GTH-PBE-q3
BASIS_SET DZVP-MOLOPT-SR-GTH
&END KIND
&KIND C
POTENTIAL GTH-PBE-q4
BASIS_SET DZVP-MOLOPT-SR-GTH
&END KIND
&KIND N
POTENTIAL GTH-PBE-q5
BASIS_SET DZVP-MOLOPT-SR-GTH
&END KIND
&KIND Cl
POTENTIAL GTH-PBE-q7
BASIS_SET DZVP-MOLOPT-SR-GTH
&END KIND
&KIND F
POTENTIAL GTH-PBE-q7
BASIS_SET DZVP-MOLOPT-SR-GTH
&END KIND
&KIND Mg
POTENTIAL GTH-PBE-q10
BASIS_SET DZVP-MOLOPT-SR-GTH
&END KIND
&KIND Al
POTENTIAL GTH-PBE-q3
BASIS_SET DZVP-MOLOPT-SR-GTH
&END KIND
&CELL
A 16.8690 0.0000 0.0000
B -8.4345 14.6090 0.0000
C 0.0000 0.0000 71.4780
&END CELL
&END SUBSYS
&PRINT
&FORCES ON
&END FORCES
&STRESS_TENSOR ON
&END STRESS_TENSOR
&END PRINT
&END FORCE_EVAL
&GLOBAL
PROJECT cp2k
&END GLOBAL