&FORCE_EVAL
METHOD QS
STRESS_TENSOR ANALYTICAL
&DFT
BASIS_SET_FILE_NAME BASIS_MOLOPT
BASIS_SET_FILE_NAME BASIS_ADMM
BASIS_SET_FILE_NAME BASIS_ADMM_MOLOPT
BASIS_SET_FILE_NAME BASIS_MOLOPT-HSE06
POTENTIAL_FILE_NAME GTH_POTENTIALS
&MGRID
CUTOFF 400
&END MGRID
&QS
EPS_DEFAULT 1e-13
&END QS
&SCF
SCF_GUESS RESTART
EPS_SCF 1e-06
MAX_SCF 500
ADDED_MOS 500
CHOLESKY INVERSE
&SMEAR ON
METHOD FERMI_DIRAC
ELECTRONIC_TEMPERATURE 300
&END SMEAR
&DIAGONALIZATION
ALGORITHM STANDARD
&END DIAGONALIZATION
&MIXING
METHOD BROYDEN_MIXING
ALPHA 0.3
BETA 1.5
NBUFFER 8
&END MIXING
&END SCF
&XC
&XC_FUNCTIONAL PBE
&END XC_FUNCTIONAL
&vdW_POTENTIAL
DISPERSION_FUNCTIONAL PAIR_POTENTIAL
&PAIR_POTENTIAL
TYPE DFTD3
PARAMETER_FILE_NAME dftd3.dat
REFERENCE_FUNCTIONAL PBE
&END PAIR_POTENTIAL
&END vdW_POTENTIAL
&END XC
&PRINT
&V_HARTREE_CUBE
ADD_LAST NUMERIC
STRIDE 8 8 1
&END V_HARTREE_CUBE
&E_DENSITY_CUBE
ADD_LAST NUMERIC
STRIDE 8 8 1
&END E_DENSITY_CUBE
&TOT_DENSITY_CUBE
ADD_LAST NUMERIC
STRIDE 1 1 1
&END TOT_DENSITY_CUBE
&PDOS
&LDOS
LIST 1 2 3
&END LDOS
&LDOS
LIST 4 5 6
&END LDOS
&LDOS
LIST 7 8 9
&END LDOS
&LDOS
LIST 10 11 12
&END LDOS
&LDOS
LIST 13 14 15
&END LDOS
&LDOS
LIST 16 17 18
&END LDOS
&LDOS
LIST 19 20 21
&END LDOS
&LDOS
LIST 22 23 24
&END LDOS
&LDOS
LIST 25 26 27
&END LDOS
&LDOS
LIST 28 29 30
&END LDOS
&LDOS
LIST 31 32 33
&END LDOS
&LDOS
LIST 34 35 36
&END LDOS
&LDOS
LIST 37 38 39
&END LDOS
&LDOS
LIST 40 41 42
&END LDOS
&LDOS
LIST 43 44 45
&END LDOS
&LDOS
LIST 46 47 48
&END LDOS
&LDOS
LIST 49 50 51
&END LDOS
&LDOS
LIST 52 53 54
&END LDOS
&LDOS
LIST 55 56 57
&END LDOS
&LDOS
LIST 58 59 60
&END LDOS
&LDOS
LIST 61 62 63
&END LDOS
&LDOS
LIST 64 65 66
&END LDOS
&LDOS
LIST 67 68 69
&END LDOS
&LDOS
LIST 70 71 72
&END LDOS
&LDOS
LIST 73 74 75
&END LDOS
&LDOS
LIST 76 77 78
&END LDOS
&LDOS
LIST 79 80 81
&END LDOS
&LDOS
LIST 82 83 84
&END LDOS
&LDOS
LIST 85 86 87
&END LDOS
&LDOS
LIST 88 89 90
&END LDOS
&LDOS
LIST 91 92 93
&END LDOS
&LDOS
LIST 94 95 96
&END LDOS
&LDOS
LIST 97 98 99
&END LDOS
&LDOS
LIST 100 101 102
&END LDOS
&LDOS
LIST 103 104 105
&END LDOS
&LDOS
LIST 106 107 108
&END LDOS
&LDOS
LIST 109 110 111
&END LDOS
&LDOS
LIST 112 113 114
&END LDOS
&LDOS
LIST 115 116 117
&END LDOS
&LDOS
LIST 118 119 120
&END LDOS
&LDOS
LIST 121 122 123
&END LDOS
&LDOS
LIST 124 125 126
&END LDOS
&LDOS
LIST 127 128 129
&END LDOS
&LDOS
LIST 130 131 132
&END LDOS
&LDOS
LIST 133 134 135
&END LDOS
&LDOS
LIST 136 137 138
&END LDOS
&LDOS
LIST 139 140 141
&END LDOS
&LDOS
LIST 142 143 144
&END LDOS
&LDOS
LIST 145 146 147
&END LDOS
&LDOS
LIST 148 149 150
&END LDOS
&LDOS
LIST 151 152 153
&END LDOS
&LDOS
LIST 154 155 156
&END LDOS
&LDOS
LIST 157 158 159
&END LDOS
&LDOS
LIST 160 161 162
&END LDOS
&LDOS
LIST 163 164 165
&END LDOS
&LDOS
LIST 166 167 168
&END LDOS
&LDOS
LIST 169 170 171
&END LDOS
&LDOS
LIST 172 173 174
&END LDOS
&LDOS
LIST 175 176 177
&END LDOS
&LDOS
LIST 178 179 180
&END LDOS
&LDOS
LIST 181 182 183
&END LDOS
&LDOS
LIST 184 185 186
&END LDOS
&LDOS
LIST 187 188 189
&END LDOS
&LDOS
LIST 190 191 192
&END LDOS
&LDOS
LIST 193 194 195
&END LDOS
&LDOS
LIST 196 197 198
&END LDOS
&LDOS
LIST 199 200 201
&END LDOS
&LDOS
LIST 202 203 204
&END LDOS
&LDOS
LIST 205 206 207
&END LDOS
&LDOS
LIST 208 209 210
&END LDOS
&LDOS
LIST 211 212 213
&END LDOS
&LDOS
LIST 214 215 216
&END LDOS
&LDOS
LIST 217 218 219
&END LDOS
&LDOS
LIST 220 221 222
&END LDOS
&LDOS
LIST 223 224 225
&END LDOS
&LDOS
LIST 226 227 228
&END LDOS
&LDOS
LIST 229 230 231
&END LDOS
&LDOS
LIST 232 233 234
&END LDOS
&LDOS
LIST 235 236 237
&END LDOS
&LDOS
LIST 238 239 240
&END LDOS
&LDOS
LIST 241 242 243
&END LDOS
&LDOS
LIST 244 245 246
&END LDOS
&LDOS
LIST 247 248 249
&END LDOS
&LDOS
LIST 250 251 252
&END LDOS
&LDOS
LIST 253 254 255
&END LDOS
&LDOS
LIST 256 257 258
&END LDOS
&LDOS
LIST 259 260 261
&END LDOS
&LDOS
LIST 262 263 264
&END LDOS
&LDOS
LIST 265 266 267
&END LDOS
&LDOS
LIST 268 269 270
&END LDOS
&LDOS
LIST 271 272 273
&END LDOS
&LDOS
LIST 274 275 276
&END LDOS
&LDOS
LIST 277 278 279
&END LDOS
&LDOS
LIST 280 281 282
&END LDOS
&LDOS
LIST 283 284 285
&END LDOS
&LDOS
LIST 286 287 288
&END LDOS
&LDOS
LIST 289 290 291
&END LDOS
&LDOS
LIST 292 293 294
&END LDOS
&LDOS
LIST 295 296 297
&END LDOS
&LDOS
LIST 298 299 300
&END LDOS
&LDOS
LIST 301 302 303
&END LDOS
&LDOS
LIST 304 305 306
&END LDOS
&LDOS
LIST 307 308 309
&END LDOS
&LDOS
LIST 310 311 312
&END LDOS
&LDOS
LIST 313 314 315
&END LDOS
&LDOS
LIST 316 317 318
&END LDOS
&LDOS
LIST 319 320 321
&END LDOS
&LDOS
LIST 322 323 324
&END LDOS
&LDOS
LIST 325 326 327
&END LDOS
&LDOS
LIST 328 329 330
&END LDOS
&LDOS
LIST 331 332 333
&END LDOS
&LDOS
LIST 334 335 336
&END LDOS
&LDOS
LIST 337 338 339
&END LDOS
&LDOS
LIST 340 341 342
&END LDOS
&LDOS
LIST 343 344 345
&END LDOS
&LDOS
LIST 346 347 348
&END LDOS
&LDOS
LIST 349 350 351
&END LDOS
&LDOS
LIST 352 353 354
&END LDOS
&LDOS
LIST 355 356 357
&END LDOS
&LDOS
LIST 358 359 360
&END LDOS
&LDOS
LIST 361 362 363
&END LDOS
&LDOS
LIST 364 365 366
&END LDOS
&LDOS
LIST 367 368 369
&END LDOS
&LDOS
LIST 370 371 372
&END LDOS
&LDOS
LIST 373 374 375
&END LDOS
&LDOS
LIST 376 377 378
&END LDOS
&LDOS
LIST 379 380 381
&END LDOS
&LDOS
LIST 382 383 384
&END LDOS
&LDOS
LIST 385 386 387
&END LDOS
&LDOS
LIST 388 389 390
&END LDOS
&LDOS
LIST 391 392 393
&END LDOS
&LDOS
LIST 394 395 396
&END LDOS
&LDOS
LIST 397 398 399
&END LDOS
&LDOS
LIST 400 401 402
&END LDOS
&LDOS
LIST 403 404 405
&END LDOS
&LDOS
LIST 406 407 408
&END LDOS
&LDOS
LIST 409 410 411
&END LDOS
&LDOS
LIST 412 413 414
&END LDOS
&LDOS
LIST 415 416 417
&END LDOS
&LDOS
LIST 418 419 420
&END LDOS
&LDOS
LIST 421 422 423
&END LDOS
&LDOS
LIST 424 425 426
&END LDOS
&LDOS
LIST 427 428 429
&END LDOS
&LDOS
LIST 430 431 432
&END LDOS
&LDOS
LIST 433 434 435
&END LDOS
&LDOS
LIST 436 437 438
&END LDOS
&LDOS
LIST 439 440 441
&END LDOS
&LDOS
LIST 442 443 444
&END LDOS
&LDOS
LIST 445 446 447
&END LDOS
&LDOS
LIST 448 449 450
&END LDOS
&LDOS
LIST 451 452 453
&END LDOS
&LDOS
LIST 454 455 456
&END LDOS
&LDOS
LIST 457 458 459
&END LDOS
&LDOS
LIST 460 461 462
&END LDOS
&LDOS
LIST 463 464 465
&END LDOS
&LDOS
LIST 466 467 468
&END LDOS
&LDOS
LIST 469 470 471
&END LDOS
&LDOS
LIST 472 473 474
&END LDOS
&LDOS
LIST 475 476 477
&END LDOS
&LDOS
LIST 478 479 480
&END LDOS
&LDOS
LIST 481 482 483
&END LDOS
&LDOS
LIST 484 485 486
&END LDOS
&LDOS
LIST 487 488 489
&END LDOS
&LDOS
LIST 490 491 492
&END LDOS
&LDOS
LIST 493 494 495
&END LDOS
&LDOS
LIST 496 497 498
&END LDOS
&LDOS
LIST 499 500 501
&END LDOS
&LDOS
LIST 502 503 504
&END LDOS
&LDOS
LIST 505 506 507
&END LDOS
&LDOS
LIST 508 509 510
&END LDOS
&LDOS
LIST 511 512 513
&END LDOS
&LDOS
LIST 514 515 516
&END LDOS
&LDOS
LIST 517 518 519
&END LDOS
&LDOS
LIST 520 521 522
&END LDOS
&LDOS
LIST 523 524 525
&END LDOS
&LDOS
LIST 526 527 528
&END LDOS
&LDOS
LIST 529 530 531
&END LDOS
&LDOS
LIST 532 533 534
&END LDOS
&LDOS
LIST 535 536 537
&END LDOS
&LDOS
LIST 538 539 540
&END LDOS
&LDOS
LIST 541 542 543
&END LDOS
&LDOS
LIST 544 545 546
&END LDOS
&LDOS
LIST 547 548 549
&END LDOS
&LDOS
LIST 550 551 552
&END LDOS
&LDOS
LIST 553 554 555
&END LDOS
&LDOS
LIST 556 557 558
&END LDOS
&LDOS
LIST 559 560 561
&END LDOS
&LDOS
LIST 562 563 564
&END LDOS
&LDOS
LIST 565 566 567
&END LDOS
&LDOS
LIST 568 569 570
&END LDOS
&LDOS
LIST 571 572 573
&END LDOS
&LDOS
LIST 574 575 576
&END LDOS
&LDOS
LIST 577 578 579
&END LDOS
&LDOS
LIST 580 581 582
&END LDOS
&LDOS
LIST 583 584 585
&END LDOS
&LDOS
LIST 586 587 588
&END LDOS
&LDOS
LIST 589 590 591
&END LDOS
&LDOS
LIST 592 593 594
&END LDOS
&LDOS
LIST 595 596 597
&END LDOS
&LDOS
LIST 598 599 600
&END LDOS
&LDOS
LIST 601 602 603
&END LDOS
&LDOS
LIST 604 605 606
&END LDOS
&LDOS
LIST 607 608 609
&END LDOS
&LDOS
LIST 610 611 612
&END LDOS
&LDOS
LIST 613 614 615
&END LDOS
&LDOS
LIST 616 617 618
&END LDOS
&LDOS
LIST 619 620 621
&END LDOS
&LDOS
LIST 622 623 624
&END LDOS
&LDOS
LIST 625 626 627
&END LDOS
&LDOS
LIST 628 629 630
&END LDOS
&LDOS
LIST 631 632 633
&END LDOS
&LDOS
LIST 634 635 636
&END LDOS
&LDOS
LIST 637 638 639
&END LDOS
&LDOS
LIST 640 641 642
&END LDOS
&LDOS
LIST 643 644 645
&END LDOS
&LDOS
LIST 646 647 648
&END LDOS
&LDOS
LIST 649 650 651
&END LDOS
&LDOS
LIST 652 653 654
&END LDOS
&LDOS
LIST 655 656 657
&END LDOS
&LDOS
LIST 658 659 660
&END LDOS
&LDOS
LIST 661 662 663
&END LDOS
&LDOS
LIST 664 665 666
&END LDOS
&LDOS
LIST 667 668 669
&END LDOS
&LDOS
LIST 670 671 672
&END LDOS
&LDOS
LIST 673 674 675
&END LDOS
&LDOS
LIST 676 677 678
&END LDOS
&LDOS
LIST 679 680 681
&END LDOS
&LDOS
LIST 682 683 684
&END LDOS
&LDOS
LIST 685 686 687
&END LDOS
&LDOS
LIST 688 689 690
&END LDOS
&END PDOS
&END PRINT
&END DFT
&SUBSYS
&TOPOLOGY
COORD_FILE_FORMAT XYZ
COORD_FILE_NAME coord.xyz
&END TOPOLOGY
&KIND O
POTENTIAL GTH-PBE-q6
BASIS_SET DZVP-MOLOPT-SR-GTH
&END KIND
&KIND H
POTENTIAL GTH-PBE-q1
BASIS_SET DZVP-MOLOPT-SR-GTH
&END KIND
&KIND Pt
POTENTIAL GTH-PBE-q10
BASIS_SET DZVP-A5-Q10-323-MOL-T1-DERIVED_SET-1
&END KIND
&KIND Ag
POTENTIAL GTH-PBE-q11
BASIS_SET DZVP-MOLOPT-SR-GTH
&END KIND
&KIND Na
POTENTIAL GTH-PBE-q9
BASIS_SET DZVP-MOLOPT-SR-GTH
&END KIND
&KIND K
POTENTIAL GTH-PBE-q9
BASIS_SET DZVP-MOLOPT-SR-GTH
&END KIND
&KIND Li
POTENTIAL GTH-PBE-q3
BASIS_SET DZVP-MOLOPT-SR-GTH
&END KIND
&KIND C
POTENTIAL GTH-PBE-q4
BASIS_SET DZVP-MOLOPT-SR-GTH
&END KIND
&KIND N
POTENTIAL GTH-PBE-q5
BASIS_SET DZVP-MOLOPT-SR-GTH
&END KIND
&KIND Cl
POTENTIAL GTH-PBE-q7
BASIS_SET DZVP-MOLOPT-SR-GTH
&END KIND
&KIND F
POTENTIAL GTH-PBE-q7
BASIS_SET DZVP-MOLOPT-SR-GTH
&END KIND
&KIND Mg
POTENTIAL GTH-PBE-q10
BASIS_SET DZVP-MOLOPT-SR-GTH
&END KIND
&KIND Al
POTENTIAL GTH-PBE-q3
BASIS_SET DZVP-MOLOPT-SR-GTH
&END KIND
&CELL
A 16.8690 0.0000 0.0000
B -8.4345 14.6090 0.0000
C 0.0000 0.0000 41.4780
&END CELL
&END SUBSYS
&PRINT
&FORCES ON
&END FORCES
&STRESS_TENSOR ON
&END STRESS_TENSOR
&END PRINT
&END FORCE_EVAL
&GLOBAL
PROJECT cp2k
&END GLOBAL