&FORCE_EVAL
  METHOD FIST
    &MM
      &FORCEFIELD
        &CHARGE
          ATOM O
          CHARGE 0.0
        &END CHARGE
        &CHARGE
          ATOM H
          CHARGE 0.0
        &END CHARGE
        &CHARGE
          ATOM Pt
          CHARGE 0.0
        &END CHARGE
        &NONBONDED
          &DEEPMD
            ATOMS O O
            POT_FILE_NAME ./graph.pb
            ATOM_DEEPMD_TYPE 0
          &END DEEPMD
          &DEEPMD
            ATOMS H H
            POT_FILE_NAME ./graph.pb
            ATOM_DEEPMD_TYPE 1
          &END DEEPMD
          &DEEPMD
            ATOMS Pt Pt
            POT_FILE_NAME ./graph.pb
            ATOM_DEEPMD_TYPE 2
          &END DEEPMD
        &END NONBONDED
        IGNORE_MISSING_CRITICAL_PARAMS .TRUE.
      &END FORCEFIELD
      &POISSON
        &EWALD
          EWALD_TYPE none
        &END EWALD
      &END POISSON
    &END MM
    &PRINT
      &FORCES ON
        &EACH
          MD 10
        &END EACH
      &END FORCES
    &END PRINT

   &SUBSYS
     &CELL
       ABC [angstrom]   16.869 16.869 41.478
       ALPHA_BETA_GAMMA  90 90 120
     &END CELL
     &TOPOLOGY
       COORD_FILE_FORMAT XYZ
       COORD_FILE_NAME coord.xyz
     &END TOPOLOGY
#     &KIND H1
#       GHOST T
#     &END KIND
   &END SUBSYS
&END FORCE_EVAL

&GLOBAL
  PROJECT  dpmd
  RUN_TYPE MD
  PRINT_LEVEL medium
  WALLTIME 2000000
&END GLOBAL

&MOTION
  &CONSTRAINT
    &FIXED_ATOMS
      LIST  763..834
      &RESTRAINT
        K 0.1
      &END RESTRAINT
    &END FIXED_ATOMS
  &END CONSTRAINT

  &MD
    ENSEMBLE NVT
    STEPS 20000000
    TIMESTEP 0.5
#    TEMP_TOL 30
    TEMPERATURE 330.0
    &THERMOSTAT
      REGION MOLECULE
      &NOSE
        LENGTH 3
        YOSHIDA 3
        TIMECON 1000
        MTS 2
      &END NOSE
    &END
  &END MD

  &PRINT
   &TRAJECTORY
     &EACH
       MD 100
     &END EACH
   &END TRAJECTORY
   &VELOCITIES ON
     &EACH
       MD 100
     &END EACH
   &END VELOCITIES
   &FORCES ON
     &EACH
       MD 100
     &END EACH
   &END FORCES
   &RESTART_HISTORY
     &EACH
       MD 50000
     &END EACH
   &END RESTART_HISTORY
   &RESTART
#     BACKUP_COPIES 3
     &EACH
       MD 50000
     &END EACH
   &END RESTART
#   &STRESS
#   &END STRESS
  &END PRINT

&END MOTION

#&EXT_RESTART
#RESTART_FILE_NAME ./dpmd-1.restart
##   RESTART_COUNTERS False
#&END EXT_RESTART
