&FORCE_EVAL
METHOD QS
STRESS_TENSOR ANALYTICAL
&DFT
BASIS_SET_FILE_NAME BASIS_MOLOPT
BASIS_SET_FILE_NAME BASIS_ADMM
BASIS_SET_FILE_NAME BASIS_ADMM_MOLOPT
BASIS_SET_FILE_NAME BASIS_MOLOPT-HSE06
POTENTIAL_FILE_NAME GTH_POTENTIALS
&MGRID
CUTOFF 400
&END MGRID
&QS
EPS_DEFAULT 1e-13
&END QS
&SCF
SCF_GUESS RESTART
EPS_SCF 1e-06
MAX_SCF 500
ADDED_MOS 500
CHOLESKY INVERSE
&SMEAR ON
METHOD FERMI_DIRAC
ELECTRONIC_TEMPERATURE 300
&END SMEAR
&DIAGONALIZATION
ALGORITHM STANDARD
&END DIAGONALIZATION
&MIXING
METHOD BROYDEN_MIXING
ALPHA 0.3
BETA 1.5
NBUFFER 8
&END MIXING
&END SCF
&XC
&XC_FUNCTIONAL PBE
&END XC_FUNCTIONAL
&vdW_POTENTIAL
DISPERSION_FUNCTIONAL PAIR_POTENTIAL
&PAIR_POTENTIAL
TYPE DFTD3
PARAMETER_FILE_NAME dftd3.dat
REFERENCE_FUNCTIONAL PBE
&END PAIR_POTENTIAL
&END vdW_POTENTIAL
&END XC
&PRINT
&V_HARTREE_CUBE
ADD_LAST NUMERIC
STRIDE 8 8 1
&END V_HARTREE_CUBE
&PDOS
&LDOS
LIST 1..3
&END LDOS
&LDOS
LIST 4..6
&END LDOS
&LDOS
LIST 7..9
&END LDOS
&LDOS
LIST 10..12
&END LDOS
&LDOS
LIST 13..15
&END LDOS
&LDOS
LIST 16..18
&END LDOS
&LDOS
LIST 19..21
&END LDOS
&LDOS
LIST 22..24
&END LDOS
&LDOS
LIST 25..27
&END LDOS
&LDOS
LIST 28..30
&END LDOS
&LDOS
LIST 31..33
&END LDOS
&LDOS
LIST 34..36
&END LDOS
&LDOS
LIST 37..39
&END LDOS
&LDOS
LIST 40..42
&END LDOS
&LDOS
LIST 43..45
&END LDOS
&LDOS
LIST 46..48
&END LDOS
&LDOS
LIST 49..51
&END LDOS
&LDOS
LIST 52..54
&END LDOS
&LDOS
LIST 55..57
&END LDOS
&LDOS
LIST 58..60
&END LDOS
&LDOS
LIST 61..63
&END LDOS
&LDOS
LIST 64..66
&END LDOS
&LDOS
LIST 67..69
&END LDOS
&LDOS
LIST 70..72
&END LDOS
&LDOS
LIST 73..75
&END LDOS
&LDOS
LIST 76..78
&END LDOS
&LDOS
LIST 79..81
&END LDOS
&LDOS
LIST 82..84
&END LDOS
&LDOS
LIST 85..87
&END LDOS
&LDOS
LIST 88..90
&END LDOS
&LDOS
LIST 91..93
&END LDOS
&LDOS
LIST 94..96
&END LDOS
&LDOS
LIST 97..99
&END LDOS
&LDOS
LIST 100..102
&END LDOS
&LDOS
LIST 103..105
&END LDOS
&LDOS
LIST 106..108
&END LDOS
&LDOS
LIST 109..111
&END LDOS
&LDOS
LIST 112..114
&END LDOS
&LDOS
LIST 115..117
&END LDOS
&LDOS
LIST 118..120
&END LDOS
&LDOS
LIST 121..123
&END LDOS
&LDOS
LIST 124..126
&END LDOS
&LDOS
LIST 127..129
&END LDOS
&LDOS
LIST 130..132
&END LDOS
&LDOS
LIST 133..135
&END LDOS
&LDOS
LIST 136..138
&END LDOS
&LDOS
LIST 139..141
&END LDOS
&LDOS
LIST 142..144
&END LDOS
&LDOS
LIST 145..147
&END LDOS
&LDOS
LIST 148..150
&END LDOS
&LDOS
LIST 151..153
&END LDOS
&LDOS
LIST 154..156
&END LDOS
&LDOS
LIST 157..159
&END LDOS
&LDOS
LIST 160..162
&END LDOS
&LDOS
LIST 163..165
&END LDOS
&LDOS
LIST 166..168
&END LDOS
&LDOS
LIST 169..171
&END LDOS
&LDOS
LIST 172..174
&END LDOS
&LDOS
LIST 175..177
&END LDOS
&LDOS
LIST 178..180
&END LDOS
&LDOS
LIST 181..183
&END LDOS
&LDOS
LIST 184..186
&END LDOS
&LDOS
LIST 187..189
&END LDOS
&LDOS
LIST 190..192
&END LDOS
&LDOS
LIST 193..195
&END LDOS
&LDOS
LIST 196..198
&END LDOS
&LDOS
LIST 199..201
&END LDOS
&LDOS
LIST 202..204
&END LDOS
&LDOS
LIST 205..207
&END LDOS
&LDOS
LIST 208..210
&END LDOS
&LDOS
LIST 211..213
&END LDOS
&LDOS
LIST 214..216
&END LDOS
&LDOS
LIST 217..219
&END LDOS
&LDOS
LIST 220..222
&END LDOS
&LDOS
LIST 223..225
&END LDOS
&LDOS
LIST 226..228
&END LDOS
&LDOS
LIST 229..231
&END LDOS
&LDOS
LIST 232..234
&END LDOS
&LDOS
LIST 235..237
&END LDOS
&LDOS
LIST 238..240
&END LDOS
&LDOS
LIST 241..243
&END LDOS
&LDOS
LIST 244..246
&END LDOS
&LDOS
LIST 247..249
&END LDOS
&LDOS
LIST 250..252
&END LDOS
&LDOS
LIST 253..255
&END LDOS
&LDOS
LIST 256..258
&END LDOS
&LDOS
LIST 259..261
&END LDOS
&LDOS
LIST 262..264
&END LDOS
&LDOS
LIST 265..267
&END LDOS
&LDOS
LIST 268..270
&END LDOS
&LDOS
LIST 271..273
&END LDOS
&LDOS
LIST 274..276
&END LDOS
&LDOS
LIST 277..279
&END LDOS
&LDOS
LIST 280..282
&END LDOS
&LDOS
LIST 283..285
&END LDOS
&LDOS
LIST 286..288
&END LDOS
&LDOS
LIST 289..291
&END LDOS
&LDOS
LIST 292..294
&END LDOS
&LDOS
LIST 295..297
&END LDOS
&LDOS
LIST 298..300
&END LDOS
&LDOS
LIST 301..303
&END LDOS
&LDOS
LIST 304..306
&END LDOS
&LDOS
LIST 307..309
&END LDOS
&LDOS
LIST 310..312
&END LDOS
&LDOS
LIST 313..315
&END LDOS
&LDOS
LIST 316..318
&END LDOS
&LDOS
LIST 319..321
&END LDOS
&LDOS
LIST 322..324
&END LDOS
&LDOS
LIST 325..327
&END LDOS
&LDOS
LIST 328..330
&END LDOS
&LDOS
LIST 331..333
&END LDOS
&LDOS
LIST 334..336
&END LDOS
&LDOS
LIST 337..339
&END LDOS
&LDOS
LIST 340..342
&END LDOS
&LDOS
LIST 343..345
&END LDOS
&LDOS
LIST 346..348
&END LDOS
&LDOS
LIST 349..351
&END LDOS
&LDOS
LIST 352..354
&END LDOS
&LDOS
LIST 355..357
&END LDOS
&LDOS
LIST 358..360
&END LDOS
&LDOS
LIST 361..363
&END LDOS
&LDOS
LIST 364..366
&END LDOS
&LDOS
LIST 367..369
&END LDOS
&LDOS
LIST 370..372
&END LDOS
&LDOS
LIST 373..375
&END LDOS
&LDOS
LIST 376..378
&END LDOS
&LDOS
LIST 379..381
&END LDOS
&LDOS
LIST 382..384
&END LDOS
&LDOS
LIST 385..387
&END LDOS
&LDOS
LIST 388..390
&END LDOS
&LDOS
LIST 391..393
&END LDOS
&LDOS
LIST 394..396
&END LDOS
&LDOS
LIST 397..399
&END LDOS
&LDOS
LIST 400..402
&END LDOS
&LDOS
LIST 403..405
&END LDOS
&LDOS
LIST 406..408
&END LDOS
&LDOS
LIST 409..411
&END LDOS
&LDOS
LIST 412..414
&END LDOS
&LDOS
LIST 415..417
&END LDOS
&LDOS
LIST 418..420
&END LDOS
&LDOS
LIST 421..423
&END LDOS
&LDOS
LIST 424..426
&END LDOS
&LDOS
LIST 427..429
&END LDOS
&LDOS
LIST 430..432
&END LDOS
&LDOS
LIST 433..435
&END LDOS
&LDOS
LIST 436..438
&END LDOS
&LDOS
LIST 439..441
&END LDOS
&LDOS
LIST 442..444
&END LDOS
&LDOS
LIST 445..447
&END LDOS
&LDOS
LIST 448..450
&END LDOS
&LDOS
LIST 451..453
&END LDOS
&LDOS
LIST 454..456
&END LDOS
&LDOS
LIST 457..459
&END LDOS
&LDOS
LIST 460..462
&END LDOS
&LDOS
LIST 463..465
&END LDOS
&LDOS
LIST 466..468
&END LDOS
&LDOS
LIST 469..471
&END LDOS
&LDOS
LIST 472..474
&END LDOS
&LDOS
LIST 475..477
&END LDOS
&LDOS
LIST 478..480
&END LDOS
&LDOS
LIST 481..483
&END LDOS
&LDOS
LIST 484..486
&END LDOS
&LDOS
LIST 487..489
&END LDOS
&LDOS
LIST 490..492
&END LDOS
&LDOS
LIST 493..495
&END LDOS
&LDOS
LIST 496..498
&END LDOS
&LDOS
LIST 499..501
&END LDOS
&LDOS
LIST 502..504
&END LDOS
&LDOS
LIST 505..507
&END LDOS
&LDOS
LIST 508..510
&END LDOS
&LDOS
LIST 511..513
&END LDOS
&LDOS
LIST 514..516
&END LDOS
&LDOS
LIST 517..519
&END LDOS
&LDOS
LIST 520..522
&END LDOS
&LDOS
LIST 523..525
&END LDOS
&LDOS
LIST 526..528
&END LDOS
&LDOS
LIST 529..531
&END LDOS
&LDOS
LIST 532..534
&END LDOS
&LDOS
LIST 535..537
&END LDOS
&LDOS
LIST 538..540
&END LDOS
&LDOS
LIST 541..543
&END LDOS
&LDOS
LIST 544..546
&END LDOS
&LDOS
LIST 547..549
&END LDOS
&LDOS
LIST 550..552
&END LDOS
&LDOS
LIST 553..555
&END LDOS
&LDOS
LIST 556..558
&END LDOS
&LDOS
LIST 559..561
&END LDOS
&LDOS
LIST 562..564
&END LDOS
&LDOS
LIST 565..567
&END LDOS
&LDOS
LIST 568..570
&END LDOS
&LDOS
LIST 571..573
&END LDOS
&LDOS
LIST 574..576
&END LDOS
&LDOS
LIST 577..579
&END LDOS
&LDOS
LIST 580..582
&END LDOS
&LDOS
LIST 583..585
&END LDOS
&LDOS
LIST 586..588
&END LDOS
&LDOS
LIST 589..591
&END LDOS
&LDOS
LIST 592..594
&END LDOS
&LDOS
LIST 595..597
&END LDOS
&LDOS
LIST 598..600
&END LDOS
&LDOS
LIST 601..603
&END LDOS
&LDOS
LIST 604..606
&END LDOS
&LDOS
LIST 607..609
&END LDOS
&LDOS
LIST 610..612
&END LDOS
&LDOS
LIST 613..615
&END LDOS
&LDOS
LIST 616..618
&END LDOS
&LDOS
LIST 619..621
&END LDOS
&LDOS
LIST 622..624
&END LDOS
&LDOS
LIST 625..627
&END LDOS
&LDOS
LIST 628..630
&END LDOS
&LDOS
LIST 631..633
&END LDOS
&LDOS
LIST 634..636
&END LDOS
&LDOS
LIST 637..639
&END LDOS
&LDOS
LIST 640..642
&END LDOS
&LDOS
LIST 643..645
&END LDOS
&LDOS
LIST 646..648
&END LDOS
&LDOS
LIST 649..651
&END LDOS
&LDOS
LIST 652..654
&END LDOS
&LDOS
LIST 655..657
&END LDOS
&LDOS
LIST 658..660
&END LDOS
&LDOS
LIST 661..663
&END LDOS
&LDOS
LIST 664..666
&END LDOS
&LDOS
LIST 667..669
&END LDOS
&LDOS
LIST 670..672
&END LDOS
&LDOS
LIST 673..675
&END LDOS
&LDOS
LIST 676..678
&END LDOS
&LDOS
LIST 679..681
&END LDOS
&LDOS
LIST 682..684
&END LDOS
&LDOS
LIST 685..687
&END LDOS
&LDOS
LIST 688..690
&END LDOS
&END PDOS
&END PRINT
&END DFT
&SUBSYS
&TOPOLOGY
COORD_FILE_FORMAT XYZ
COORD_FILE_NAME coord.xyz
&END TOPOLOGY
&KIND O
POTENTIAL GTH-PBE-q6
BASIS_SET DZVP-MOLOPT-SR-GTH
&END KIND
&KIND H
POTENTIAL GTH-PBE-q1
BASIS_SET DZVP-MOLOPT-SR-GTH
&END KIND
&KIND Pt
POTENTIAL GTH-PBE-q10
BASIS_SET DZVP-A5-Q10-323-MOL-T1-DERIVED_SET-1
&END KIND
&KIND Ag
POTENTIAL GTH-PBE-q11
BASIS_SET DZVP-MOLOPT-SR-GTH
&END KIND
&KIND Na
POTENTIAL GTH-PBE-q9
BASIS_SET DZVP-MOLOPT-SR-GTH
&END KIND
&KIND K
POTENTIAL GTH-PBE-q9
BASIS_SET DZVP-MOLOPT-SR-GTH
&END KIND
&KIND Li
POTENTIAL GTH-PBE-q3
BASIS_SET DZVP-MOLOPT-SR-GTH
&END KIND
&KIND C
POTENTIAL GTH-PBE-q4
BASIS_SET DZVP-MOLOPT-SR-GTH
&END KIND
&KIND N
POTENTIAL GTH-PBE-q5
BASIS_SET DZVP-MOLOPT-SR-GTH
&END KIND
&KIND Cl
POTENTIAL GTH-PBE-q7
BASIS_SET DZVP-MOLOPT-SR-GTH
&END KIND
&KIND F
POTENTIAL GTH-PBE-q7
BASIS_SET DZVP-MOLOPT-SR-GTH
&END KIND
&KIND Mg
POTENTIAL GTH-PBE-q10
BASIS_SET DZVP-MOLOPT-SR-GTH
&END KIND
&KIND Al
POTENTIAL GTH-PBE-q3
BASIS_SET DZVP-MOLOPT-SR-GTH
&END KIND
&CELL
A 16.8690 0.0000 0.0000
B -8.4345 14.6090 0.0000
C 0.0000 0.0000 41.4780
&END CELL
&END SUBSYS
&PRINT
&FORCES ON
&END FORCES
&STRESS_TENSOR ON
&END STRESS_TENSOR
&END PRINT
&END FORCE_EVAL
&GLOBAL
PROJECT cp2k
&END GLOBAL